# vtk DataFile Version 3.0
One Hex element example
ASCII

DATASET UNSTRUCTURED_GRID
POINTS	4840	float
3.000000e-02	0.000000e+00	0.000000e+00
0.000000e+00	0.000000e+00	-3.000000e-02
2.963065e-02	0.000000e+00	-4.693034e-03
2.853170e-02	0.000000e+00	-9.270510e-03
2.673020e-02	0.000000e+00	-1.361971e-02
2.427051e-02	0.000000e+00	-1.763356e-02
2.121320e-02	0.000000e+00	-2.121320e-02
1.763356e-02	0.000000e+00	-2.427051e-02
1.361971e-02	0.000000e+00	-2.673020e-02
9.270510e-03	0.000000e+00	-2.853170e-02
4.693034e-03	0.000000e+00	-2.963065e-02
0.000000e+00	2.950000e-01	-3.000000e-02
0.000000e+00	5.000000e-03	-3.000000e-02
0.000000e+00	1.000000e-02	-3.000000e-02
0.000000e+00	1.500000e-02	-3.000000e-02
0.000000e+00	2.000000e-02	-3.000000e-02
0.000000e+00	2.500000e-02	-3.000000e-02
0.000000e+00	3.000000e-02	-3.000000e-02
0.000000e+00	3.500000e-02	-3.000000e-02
0.000000e+00	4.000000e-02	-3.000000e-02
0.000000e+00	4.500000e-02	-3.000000e-02
0.000000e+00	5.000000e-02	-3.000000e-02
0.000000e+00	5.500000e-02	-3.000000e-02
0.000000e+00	6.000000e-02	-3.000000e-02
0.000000e+00	6.500000e-02	-3.000000e-02
0.000000e+00	7.000000e-02	-3.000000e-02
0.000000e+00	7.500000e-02	-3.000000e-02
0.000000e+00	8.000000e-02	-3.000000e-02
0.000000e+00	8.500000e-02	-3.000000e-02
0.000000e+00	9.000000e-02	-3.000000e-02
0.000000e+00	9.500000e-02	-3.000000e-02
0.000000e+00	1.000000e-01	-3.000000e-02
0.000000e+00	1.050000e-01	-3.000000e-02
0.000000e+00	1.100000e-01	-3.000000e-02
0.000000e+00	1.150000e-01	-3.000000e-02
0.000000e+00	1.200000e-01	-3.000000e-02
0.000000e+00	1.250000e-01	-3.000000e-02
0.000000e+00	1.300000e-01	-3.000000e-02
0.000000e+00	1.350000e-01	-3.000000e-02
0.000000e+00	1.400000e-01	-3.000000e-02
0.000000e+00	1.450000e-01	-3.000000e-02
0.000000e+00	1.500000e-01	-3.000000e-02
0.000000e+00	1.550000e-01	-3.000000e-02
0.000000e+00	1.600000e-01	-3.000000e-02
0.000000e+00	1.650000e-01	-3.000000e-02
0.000000e+00	1.700000e-01	-3.000000e-02
0.000000e+00	1.750000e-01	-3.000000e-02
0.000000e+00	1.800000e-01	-3.000000e-02
0.000000e+00	1.850000e-01	-3.000000e-02
0.000000e+00	1.900000e-01	-3.000000e-02
0.000000e+00	1.950000e-01	-3.000000e-02
0.000000e+00	2.000000e-01	-3.000000e-02
0.000000e+00	2.050000e-01	-3.000000e-02
0.000000e+00	2.100000e-01	-3.000000e-02
0.000000e+00	2.150000e-01	-3.000000e-02
0.000000e+00	2.200000e-01	-3.000000e-02
0.000000e+00	2.250000e-01	-3.000000e-02
0.000000e+00	2.300000e-01	-3.000000e-02
0.000000e+00	2.350000e-01	-3.000000e-02
0.000000e+00	2.400000e-01	-3.000000e-02
0.000000e+00	2.450000e-01	-3.000000e-02
0.000000e+00	2.500000e-01	-3.000000e-02
0.000000e+00	2.550000e-01	-3.000000e-02
0.000000e+00	2.600000e-01	-3.000000e-02
0.000000e+00	2.650000e-01	-3.000000e-02
0.000000e+00	2.700000e-01	-3.000000e-02
0.000000e+00	2.750000e-01	-3.000000e-02
0.000000e+00	2.800000e-01	-3.000000e-02
0.000000e+00	2.850000e-01	-3.000000e-02
0.000000e+00	2.900000e-01	-3.000000e-02
3.000000e-02	2.950000e-01	0.000000e+00
2.963065e-02	2.950000e-01	-4.693034e-03
2.853170e-02	2.950000e-01	-9.270510e-03
2.673020e-02	2.950000e-01	-1.361971e-02
2.427051e-02	2.950000e-01	-1.763356e-02
2.121320e-02	2.950000e-01	-2.121320e-02
1.763356e-02	2.950000e-01	-2.427051e-02
1.361971e-02	2.950000e-01	-2.673020e-02
9.270510e-03	2.950000e-01	-2.853170e-02
4.693034e-03	2.950000e-01	-2.963065e-02
3.000000e-02	5.000000e-03	0.000000e+00
3.000000e-02	1.000000e-02	0.000000e+00
3.000000e-02	1.500000e-02	0.000000e+00
3.000000e-02	2.000000e-02	0.000000e+00
3.000000e-02	2.500000e-02	0.000000e+00
3.000000e-02	3.000000e-02	0.000000e+00
3.000000e-02	3.500000e-02	0.000000e+00
3.000000e-02	4.000000e-02	0.000000e+00
3.000000e-02	4.500000e-02	0.000000e+00
3.000000e-02	5.000000e-02	0.000000e+00
3.000000e-02	5.500000e-02	0.000000e+00
3.000000e-02	6.000000e-02	0.000000e+00
3.000000e-02	6.500000e-02	0.000000e+00
3.000000e-02	7.000000e-02	0.000000e+00
3.000000e-02	7.500000e-02	0.000000e+00
3.000000e-02	8.000000e-02	0.000000e+00
3.000000e-02	8.500000e-02	0.000000e+00
3.000000e-02	9.000000e-02	0.000000e+00
3.000000e-02	9.500000e-02	0.000000e+00
3.000000e-02	1.000000e-01	0.000000e+00
3.000000e-02	1.050000e-01	0.000000e+00
3.000000e-02	1.100000e-01	0.000000e+00
3.000000e-02	1.150000e-01	0.000000e+00
3.000000e-02	1.200000e-01	0.000000e+00
3.000000e-02	1.250000e-01	0.000000e+00
3.000000e-02	1.300000e-01	0.000000e+00
3.000000e-02	1.350000e-01	0.000000e+00
3.000000e-02	1.400000e-01	0.000000e+00
3.000000e-02	1.450000e-01	0.000000e+00
3.000000e-02	1.500000e-01	0.000000e+00
3.000000e-02	1.550000e-01	0.000000e+00
3.000000e-02	1.600000e-01	0.000000e+00
3.000000e-02	1.650000e-01	0.000000e+00
3.000000e-02	1.700000e-01	0.000000e+00
3.000000e-02	1.750000e-01	0.000000e+00
3.000000e-02	1.800000e-01	0.000000e+00
3.000000e-02	1.850000e-01	0.000000e+00
3.000000e-02	1.900000e-01	0.000000e+00
3.000000e-02	1.950000e-01	0.000000e+00
3.000000e-02	2.000000e-01	0.000000e+00
3.000000e-02	2.050000e-01	0.000000e+00
3.000000e-02	2.100000e-01	0.000000e+00
3.000000e-02	2.150000e-01	0.000000e+00
3.000000e-02	2.200000e-01	0.000000e+00
3.000000e-02	2.250000e-01	0.000000e+00
3.000000e-02	2.300000e-01	0.000000e+00
3.000000e-02	2.350000e-01	0.000000e+00
3.000000e-02	2.400000e-01	0.000000e+00
3.000000e-02	2.450000e-01	0.000000e+00
3.000000e-02	2.500000e-01	0.000000e+00
3.000000e-02	2.550000e-01	0.000000e+00
3.000000e-02	2.600000e-01	0.000000e+00
3.000000e-02	2.650000e-01	0.000000e+00
3.000000e-02	2.700000e-01	0.000000e+00
3.000000e-02	2.750000e-01	0.000000e+00
3.000000e-02	2.800000e-01	0.000000e+00
3.000000e-02	2.850000e-01	0.000000e+00
3.000000e-02	2.900000e-01	0.000000e+00
4.693034e-03	2.900000e-01	-2.963065e-02
4.693034e-03	2.850000e-01	-2.963065e-02
4.693034e-03	2.800000e-01	-2.963065e-02
4.693034e-03	2.750000e-01	-2.963065e-02
4.693034e-03	2.700000e-01	-2.963065e-02
4.693034e-03	2.650000e-01	-2.963065e-02
4.693034e-03	2.600000e-01	-2.963065e-02
4.693034e-03	2.550000e-01	-2.963065e-02
4.693034e-03	2.500000e-01	-2.963065e-02
4.693034e-03	2.450000e-01	-2.963065e-02
4.693034e-03	2.400000e-01	-2.963065e-02
4.693034e-03	2.350000e-01	-2.963065e-02
4.693034e-03	2.300000e-01	-2.963065e-02
4.693034e-03	2.250000e-01	-2.963065e-02
4.693034e-03	2.200000e-01	-2.963065e-02
4.693034e-03	2.150000e-01	-2.963065e-02
4.693034e-03	2.100000e-01	-2.963065e-02
4.693034e-03	2.050000e-01	-2.963065e-02
4.693034e-03	2.000000e-01	-2.963065e-02
4.693034e-03	1.950000e-01	-2.963065e-02
4.693034e-03	1.900000e-01	-2.963065e-02
4.693034e-03	1.850000e-01	-2.963065e-02
4.693034e-03	1.800000e-01	-2.963065e-02
4.693034e-03	1.750000e-01	-2.963065e-02
4.693034e-03	1.700000e-01	-2.963065e-02
4.693034e-03	1.650000e-01	-2.963065e-02
4.693034e-03	1.600000e-01	-2.963065e-02
4.693034e-03	1.550000e-01	-2.963065e-02
4.693034e-03	1.500000e-01	-2.963065e-02
4.693034e-03	1.450000e-01	-2.963065e-02
4.693034e-03	1.400000e-01	-2.963065e-02
4.693034e-03	1.350000e-01	-2.963065e-02
4.693034e-03	1.300000e-01	-2.963065e-02
4.693034e-03	1.250000e-01	-2.963065e-02
4.693034e-03	1.200000e-01	-2.963065e-02
4.693034e-03	1.150000e-01	-2.963065e-02
4.693034e-03	1.100000e-01	-2.963065e-02
4.693034e-03	1.050000e-01	-2.963065e-02
4.693034e-03	1.000000e-01	-2.963065e-02
4.693034e-03	9.500000e-02	-2.963065e-02
4.693034e-03	9.000000e-02	-2.963065e-02
4.693034e-03	8.500000e-02	-2.963065e-02
4.693034e-03	8.000000e-02	-2.963065e-02
4.693034e-03	7.500000e-02	-2.963065e-02
4.693034e-03	7.000000e-02	-2.963065e-02
4.693034e-03	6.500000e-02	-2.963065e-02
4.693034e-03	6.000000e-02	-2.963065e-02
4.693034e-03	5.500000e-02	-2.963065e-02
4.693034e-03	5.000000e-02	-2.963065e-02
4.693034e-03	4.500000e-02	-2.963065e-02
4.693034e-03	4.000000e-02	-2.963065e-02
4.693034e-03	3.500000e-02	-2.963065e-02
4.693034e-03	3.000000e-02	-2.963065e-02
4.693034e-03	2.500000e-02	-2.963065e-02
4.693034e-03	2.000000e-02	-2.963065e-02
4.693034e-03	1.500000e-02	-2.963065e-02
4.693034e-03	1.000000e-02	-2.963065e-02
4.693034e-03	5.000000e-03	-2.963065e-02
9.270510e-03	2.900000e-01	-2.853170e-02
9.270510e-03	2.850000e-01	-2.853170e-02
9.270510e-03	2.800000e-01	-2.853170e-02
9.270510e-03	2.750000e-01	-2.853170e-02
9.270510e-03	2.700000e-01	-2.853170e-02
9.270510e-03	2.650000e-01	-2.853170e-02
9.270510e-03	2.600000e-01	-2.853170e-02
9.270510e-03	2.550000e-01	-2.853170e-02
9.270510e-03	2.500000e-01	-2.853170e-02
9.270510e-03	2.450000e-01	-2.853170e-02
9.270510e-03	2.400000e-01	-2.853170e-02
9.270510e-03	2.350000e-01	-2.853170e-02
9.270510e-03	2.300000e-01	-2.853170e-02
9.270510e-03	2.250000e-01	-2.853170e-02
9.270510e-03	2.200000e-01	-2.853170e-02
9.270510e-03	2.150000e-01	-2.853170e-02
9.270510e-03	2.100000e-01	-2.853170e-02
9.270510e-03	2.050000e-01	-2.853170e-02
9.270510e-03	2.000000e-01	-2.853170e-02
9.270510e-03	1.950000e-01	-2.853170e-02
9.270510e-03	1.900000e-01	-2.853170e-02
9.270510e-03	1.850000e-01	-2.853170e-02
9.270510e-03	1.800000e-01	-2.853170e-02
9.270510e-03	1.750000e-01	-2.853170e-02
9.270510e-03	1.700000e-01	-2.853170e-02
9.270510e-03	1.650000e-01	-2.853170e-02
9.270510e-03	1.600000e-01	-2.853170e-02
9.270510e-03	1.550000e-01	-2.853170e-02
9.270510e-03	1.500000e-01	-2.853170e-02
9.270510e-03	1.450000e-01	-2.853170e-02
9.270510e-03	1.400000e-01	-2.853170e-02
9.270510e-03	1.350000e-01	-2.853170e-02
9.270510e-03	1.300000e-01	-2.853170e-02
9.270510e-03	1.250000e-01	-2.853170e-02
9.270510e-03	1.200000e-01	-2.853170e-02
9.270510e-03	1.150000e-01	-2.853170e-02
9.270510e-03	1.100000e-01	-2.853170e-02
9.270510e-03	1.050000e-01	-2.853170e-02
9.270510e-03	1.000000e-01	-2.853170e-02
9.270510e-03	9.500000e-02	-2.853170e-02
9.270510e-03	9.000000e-02	-2.853170e-02
9.270510e-03	8.500000e-02	-2.853170e-02
9.270510e-03	8.000000e-02	-2.853170e-02
9.270510e-03	7.500000e-02	-2.853170e-02
9.270510e-03	7.000000e-02	-2.853170e-02
9.270510e-03	6.500000e-02	-2.853170e-02
9.270510e-03	6.000000e-02	-2.853170e-02
9.270510e-03	5.500000e-02	-2.853170e-02
9.270510e-03	5.000000e-02	-2.853170e-02
9.270510e-03	4.500000e-02	-2.853170e-02
9.270510e-03	4.000000e-02	-2.853170e-02
9.270510e-03	3.500000e-02	-2.853170e-02
9.270510e-03	3.000000e-02	-2.853170e-02
9.270510e-03	2.500000e-02	-2.853170e-02
9.270510e-03	2.000000e-02	-2.853170e-02
9.270510e-03	1.500000e-02	-2.853170e-02
9.270510e-03	1.000000e-02	-2.853170e-02
9.270510e-03	5.000000e-03	-2.853170e-02
1.361971e-02	2.900000e-01	-2.673020e-02
1.361971e-02	2.850000e-01	-2.673020e-02
1.361971e-02	2.800000e-01	-2.673020e-02
1.361971e-02	2.750000e-01	-2.673020e-02
1.361971e-02	2.700000e-01	-2.673020e-02
1.361971e-02	2.650000e-01	-2.673020e-02
1.361971e-02	2.600000e-01	-2.673020e-02
1.361971e-02	2.550000e-01	-2.673020e-02
1.361971e-02	2.500000e-01	-2.673020e-02
1.361971e-02	2.450000e-01	-2.673020e-02
1.361971e-02	2.400000e-01	-2.673020e-02
1.361971e-02	2.350000e-01	-2.673020e-02
1.361971e-02	2.300000e-01	-2.673020e-02
1.361971e-02	2.250000e-01	-2.673020e-02
1.361971e-02	2.200000e-01	-2.673020e-02
1.361971e-02	2.150000e-01	-2.673020e-02
1.361971e-02	2.100000e-01	-2.673020e-02
1.361971e-02	2.050000e-01	-2.673020e-02
1.361971e-02	2.000000e-01	-2.673020e-02
1.361971e-02	1.950000e-01	-2.673020e-02
1.361971e-02	1.900000e-01	-2.673020e-02
1.361971e-02	1.850000e-01	-2.673020e-02
1.361971e-02	1.800000e-01	-2.673020e-02
1.361971e-02	1.750000e-01	-2.673020e-02
1.361971e-02	1.700000e-01	-2.673020e-02
1.361971e-02	1.650000e-01	-2.673020e-02
1.361971e-02	1.600000e-01	-2.673020e-02
1.361971e-02	1.550000e-01	-2.673020e-02
1.361971e-02	1.500000e-01	-2.673020e-02
1.361971e-02	1.450000e-01	-2.673020e-02
1.361971e-02	1.400000e-01	-2.673020e-02
1.361971e-02	1.350000e-01	-2.673020e-02
1.361971e-02	1.300000e-01	-2.673020e-02
1.361971e-02	1.250000e-01	-2.673020e-02
1.361971e-02	1.200000e-01	-2.673020e-02
1.361971e-02	1.150000e-01	-2.673020e-02
1.361971e-02	1.100000e-01	-2.673020e-02
1.361971e-02	1.050000e-01	-2.673020e-02
1.361971e-02	1.000000e-01	-2.673020e-02
1.361971e-02	9.500000e-02	-2.673020e-02
1.361971e-02	9.000000e-02	-2.673020e-02
1.361971e-02	8.500000e-02	-2.673020e-02
1.361971e-02	8.000000e-02	-2.673020e-02
1.361971e-02	7.500000e-02	-2.673020e-02
1.361971e-02	7.000000e-02	-2.673020e-02
1.361971e-02	6.500000e-02	-2.673020e-02
1.361971e-02	6.000000e-02	-2.673020e-02
1.361971e-02	5.500000e-02	-2.673020e-02
1.361971e-02	5.000000e-02	-2.673020e-02
1.361971e-02	4.500000e-02	-2.673020e-02
1.361971e-02	4.000000e-02	-2.673020e-02
1.361971e-02	3.500000e-02	-2.673020e-02
1.361971e-02	3.000000e-02	-2.673020e-02
1.361971e-02	2.500000e-02	-2.673020e-02
1.361971e-02	2.000000e-02	-2.673020e-02
1.361971e-02	1.500000e-02	-2.673020e-02
1.361971e-02	1.000000e-02	-2.673020e-02
1.361971e-02	5.000000e-03	-2.673020e-02
1.763356e-02	2.900000e-01	-2.427051e-02
1.763356e-02	2.850000e-01	-2.427051e-02
1.763356e-02	2.800000e-01	-2.427051e-02
1.763356e-02	2.750000e-01	-2.427051e-02
1.763356e-02	2.700000e-01	-2.427051e-02
1.763356e-02	2.650000e-01	-2.427051e-02
1.763356e-02	2.600000e-01	-2.427051e-02
1.763356e-02	2.550000e-01	-2.427051e-02
1.763356e-02	2.500000e-01	-2.427051e-02
1.763356e-02	2.450000e-01	-2.427051e-02
1.763356e-02	2.400000e-01	-2.427051e-02
1.763356e-02	2.350000e-01	-2.427051e-02
1.763356e-02	2.300000e-01	-2.427051e-02
1.763356e-02	2.250000e-01	-2.427051e-02
1.763356e-02	2.200000e-01	-2.427051e-02
1.763356e-02	2.150000e-01	-2.427051e-02
1.763356e-02	2.100000e-01	-2.427051e-02
1.763356e-02	2.050000e-01	-2.427051e-02
1.763356e-02	2.000000e-01	-2.427051e-02
1.763356e-02	1.950000e-01	-2.427051e-02
1.763356e-02	1.900000e-01	-2.427051e-02
1.763356e-02	1.850000e-01	-2.427051e-02
1.763356e-02	1.800000e-01	-2.427051e-02
1.763356e-02	1.750000e-01	-2.427051e-02
1.763356e-02	1.700000e-01	-2.427051e-02
1.763356e-02	1.650000e-01	-2.427051e-02
1.763356e-02	1.600000e-01	-2.427051e-02
1.763356e-02	1.550000e-01	-2.427051e-02
1.763356e-02	1.500000e-01	-2.427051e-02
1.763356e-02	1.450000e-01	-2.427051e-02
1.763356e-02	1.400000e-01	-2.427051e-02
1.763356e-02	1.350000e-01	-2.427051e-02
1.763356e-02	1.300000e-01	-2.427051e-02
1.763356e-02	1.250000e-01	-2.427051e-02
1.763356e-02	1.200000e-01	-2.427051e-02
1.763356e-02	1.150000e-01	-2.427051e-02
1.763356e-02	1.100000e-01	-2.427051e-02
1.763356e-02	1.050000e-01	-2.427051e-02
1.763356e-02	1.000000e-01	-2.427051e-02
1.763356e-02	9.500000e-02	-2.427051e-02
1.763356e-02	9.000000e-02	-2.427051e-02
1.763356e-02	8.500000e-02	-2.427051e-02
1.763356e-02	8.000000e-02	-2.427051e-02
1.763356e-02	7.500000e-02	-2.427051e-02
1.763356e-02	7.000000e-02	-2.427051e-02
1.763356e-02	6.500000e-02	-2.427051e-02
1.763356e-02	6.000000e-02	-2.427051e-02
1.763356e-02	5.500000e-02	-2.427051e-02
1.763356e-02	5.000000e-02	-2.427051e-02
1.763356e-02	4.500000e-02	-2.427051e-02
1.763356e-02	4.000000e-02	-2.427051e-02
1.763356e-02	3.500000e-02	-2.427051e-02
1.763356e-02	3.000000e-02	-2.427051e-02
1.763356e-02	2.500000e-02	-2.427051e-02
1.763356e-02	2.000000e-02	-2.427051e-02
1.763356e-02	1.500000e-02	-2.427051e-02
1.763356e-02	1.000000e-02	-2.427051e-02
1.763356e-02	5.000000e-03	-2.427051e-02
2.121320e-02	2.900000e-01	-2.121320e-02
2.121320e-02	2.850000e-01	-2.121320e-02
2.121320e-02	2.800000e-01	-2.121320e-02
2.121320e-02	2.750000e-01	-2.121320e-02
2.121320e-02	2.700000e-01	-2.121320e-02
2.121320e-02	2.650000e-01	-2.121320e-02
2.121320e-02	2.600000e-01	-2.121320e-02
2.121320e-02	2.550000e-01	-2.121320e-02
2.121320e-02	2.500000e-01	-2.121320e-02
2.121320e-02	2.450000e-01	-2.121320e-02
2.121320e-02	2.400000e-01	-2.121320e-02
2.121320e-02	2.350000e-01	-2.121320e-02
2.121320e-02	2.300000e-01	-2.121320e-02
2.121320e-02	2.250000e-01	-2.121320e-02
2.121320e-02	2.200000e-01	-2.121320e-02
2.121320e-02	2.150000e-01	-2.121320e-02
2.121320e-02	2.100000e-01	-2.121320e-02
2.121320e-02	2.050000e-01	-2.121320e-02
2.121320e-02	2.000000e-01	-2.121320e-02
2.121320e-02	1.950000e-01	-2.121320e-02
2.121320e-02	1.900000e-01	-2.121320e-02
2.121320e-02	1.850000e-01	-2.121320e-02
2.121320e-02	1.800000e-01	-2.121320e-02
2.121320e-02	1.750000e-01	-2.121320e-02
2.121320e-02	1.700000e-01	-2.121320e-02
2.121320e-02	1.650000e-01	-2.121320e-02
2.121320e-02	1.600000e-01	-2.121320e-02
2.121320e-02	1.550000e-01	-2.121320e-02
2.121320e-02	1.500000e-01	-2.121320e-02
2.121320e-02	1.450000e-01	-2.121320e-02
2.121320e-02	1.400000e-01	-2.121320e-02
2.121320e-02	1.350000e-01	-2.121320e-02
2.121320e-02	1.300000e-01	-2.121320e-02
2.121320e-02	1.250000e-01	-2.121320e-02
2.121320e-02	1.200000e-01	-2.121320e-02
2.121320e-02	1.150000e-01	-2.121320e-02
2.121320e-02	1.100000e-01	-2.121320e-02
2.121320e-02	1.050000e-01	-2.121320e-02
2.121320e-02	1.000000e-01	-2.121320e-02
2.121320e-02	9.500000e-02	-2.121320e-02
2.121320e-02	9.000000e-02	-2.121320e-02
2.121320e-02	8.500000e-02	-2.121320e-02
2.121320e-02	8.000000e-02	-2.121320e-02
2.121320e-02	7.500000e-02	-2.121320e-02
2.121320e-02	7.000000e-02	-2.121320e-02
2.121320e-02	6.500000e-02	-2.121320e-02
2.121320e-02	6.000000e-02	-2.121320e-02
2.121320e-02	5.500000e-02	-2.121320e-02
2.121320e-02	5.000000e-02	-2.121320e-02
2.121320e-02	4.500000e-02	-2.121320e-02
2.121320e-02	4.000000e-02	-2.121320e-02
2.121320e-02	3.500000e-02	-2.121320e-02
2.121320e-02	3.000000e-02	-2.121320e-02
2.121320e-02	2.500000e-02	-2.121320e-02
2.121320e-02	2.000000e-02	-2.121320e-02
2.121320e-02	1.500000e-02	-2.121320e-02
2.121320e-02	1.000000e-02	-2.121320e-02
2.121320e-02	5.000000e-03	-2.121320e-02
2.427051e-02	2.900000e-01	-1.763356e-02
2.427051e-02	2.850000e-01	-1.763356e-02
2.427051e-02	2.800000e-01	-1.763356e-02
2.427051e-02	2.750000e-01	-1.763356e-02
2.427051e-02	2.700000e-01	-1.763356e-02
2.427051e-02	2.650000e-01	-1.763356e-02
2.427051e-02	2.600000e-01	-1.763356e-02
2.427051e-02	2.550000e-01	-1.763356e-02
2.427051e-02	2.500000e-01	-1.763356e-02
2.427051e-02	2.450000e-01	-1.763356e-02
2.427051e-02	2.400000e-01	-1.763356e-02
2.427051e-02	2.350000e-01	-1.763356e-02
2.427051e-02	2.300000e-01	-1.763356e-02
2.427051e-02	2.250000e-01	-1.763356e-02
2.427051e-02	2.200000e-01	-1.763356e-02
2.427051e-02	2.150000e-01	-1.763356e-02
2.427051e-02	2.100000e-01	-1.763356e-02
2.427051e-02	2.050000e-01	-1.763356e-02
2.427051e-02	2.000000e-01	-1.763356e-02
2.427051e-02	1.950000e-01	-1.763356e-02
2.427051e-02	1.900000e-01	-1.763356e-02
2.427051e-02	1.850000e-01	-1.763356e-02
2.427051e-02	1.800000e-01	-1.763356e-02
2.427051e-02	1.750000e-01	-1.763356e-02
2.427051e-02	1.700000e-01	-1.763356e-02
2.427051e-02	1.650000e-01	-1.763356e-02
2.427051e-02	1.600000e-01	-1.763356e-02
2.427051e-02	1.550000e-01	-1.763356e-02
2.427051e-02	1.500000e-01	-1.763356e-02
2.427051e-02	1.450000e-01	-1.763356e-02
2.427051e-02	1.400000e-01	-1.763356e-02
2.427051e-02	1.350000e-01	-1.763356e-02
2.427051e-02	1.300000e-01	-1.763356e-02
2.427051e-02	1.250000e-01	-1.763356e-02
2.427051e-02	1.200000e-01	-1.763356e-02
2.427051e-02	1.150000e-01	-1.763356e-02
2.427051e-02	1.100000e-01	-1.763356e-02
2.427051e-02	1.050000e-01	-1.763356e-02
2.427051e-02	1.000000e-01	-1.763356e-02
2.427051e-02	9.500000e-02	-1.763356e-02
2.427051e-02	9.000000e-02	-1.763356e-02
2.427051e-02	8.500000e-02	-1.763356e-02
2.427051e-02	8.000000e-02	-1.763356e-02
2.427051e-02	7.500000e-02	-1.763356e-02
2.427051e-02	7.000000e-02	-1.763356e-02
2.427051e-02	6.500000e-02	-1.763356e-02
2.427051e-02	6.000000e-02	-1.763356e-02
2.427051e-02	5.500000e-02	-1.763356e-02
2.427051e-02	5.000000e-02	-1.763356e-02
2.427051e-02	4.500000e-02	-1.763356e-02
2.427051e-02	4.000000e-02	-1.763356e-02
2.427051e-02	3.500000e-02	-1.763356e-02
2.427051e-02	3.000000e-02	-1.763356e-02
2.427051e-02	2.500000e-02	-1.763356e-02
2.427051e-02	2.000000e-02	-1.763356e-02
2.427051e-02	1.500000e-02	-1.763356e-02
2.427051e-02	1.000000e-02	-1.763356e-02
2.427051e-02	5.000000e-03	-1.763356e-02
2.673020e-02	2.900000e-01	-1.361971e-02
2.673020e-02	2.850000e-01	-1.361971e-02
2.673020e-02	2.800000e-01	-1.361971e-02
2.673020e-02	2.750000e-01	-1.361971e-02
2.673020e-02	2.700000e-01	-1.361971e-02
2.673020e-02	2.650000e-01	-1.361971e-02
2.673020e-02	2.600000e-01	-1.361971e-02
2.673020e-02	2.550000e-01	-1.361971e-02
2.673020e-02	2.500000e-01	-1.361971e-02
2.673020e-02	2.450000e-01	-1.361971e-02
2.673020e-02	2.400000e-01	-1.361971e-02
2.673020e-02	2.350000e-01	-1.361971e-02
2.673020e-02	2.300000e-01	-1.361971e-02
2.673020e-02	2.250000e-01	-1.361971e-02
2.673020e-02	2.200000e-01	-1.361971e-02
2.673020e-02	2.150000e-01	-1.361971e-02
2.673020e-02	2.100000e-01	-1.361971e-02
2.673020e-02	2.050000e-01	-1.361971e-02
2.673020e-02	2.000000e-01	-1.361971e-02
2.673020e-02	1.950000e-01	-1.361971e-02
2.673020e-02	1.900000e-01	-1.361971e-02
2.673020e-02	1.850000e-01	-1.361971e-02
2.673020e-02	1.800000e-01	-1.361971e-02
2.673020e-02	1.750000e-01	-1.361971e-02
2.673020e-02	1.700000e-01	-1.361971e-02
2.673020e-02	1.650000e-01	-1.361971e-02
2.673020e-02	1.600000e-01	-1.361971e-02
2.673020e-02	1.550000e-01	-1.361971e-02
2.673020e-02	1.500000e-01	-1.361971e-02
2.673020e-02	1.450000e-01	-1.361971e-02
2.673020e-02	1.400000e-01	-1.361971e-02
2.673020e-02	1.350000e-01	-1.361971e-02
2.673020e-02	1.300000e-01	-1.361971e-02
2.673020e-02	1.250000e-01	-1.361971e-02
2.673020e-02	1.200000e-01	-1.361971e-02
2.673020e-02	1.150000e-01	-1.361971e-02
2.673020e-02	1.100000e-01	-1.361971e-02
2.673020e-02	1.050000e-01	-1.361971e-02
2.673020e-02	1.000000e-01	-1.361971e-02
2.673020e-02	9.500000e-02	-1.361971e-02
2.673020e-02	9.000000e-02	-1.361971e-02
2.673020e-02	8.500000e-02	-1.361971e-02
2.673020e-02	8.000000e-02	-1.361971e-02
2.673020e-02	7.500000e-02	-1.361971e-02
2.673020e-02	7.000000e-02	-1.361971e-02
2.673020e-02	6.500000e-02	-1.361971e-02
2.673020e-02	6.000000e-02	-1.361971e-02
2.673020e-02	5.500000e-02	-1.361971e-02
2.673020e-02	5.000000e-02	-1.361971e-02
2.673020e-02	4.500000e-02	-1.361971e-02
2.673020e-02	4.000000e-02	-1.361971e-02
2.673020e-02	3.500000e-02	-1.361971e-02
2.673020e-02	3.000000e-02	-1.361971e-02
2.673020e-02	2.500000e-02	-1.361971e-02
2.673020e-02	2.000000e-02	-1.361971e-02
2.673020e-02	1.500000e-02	-1.361971e-02
2.673020e-02	1.000000e-02	-1.361971e-02
2.673020e-02	5.000000e-03	-1.361971e-02
2.853170e-02	2.900000e-01	-9.270510e-03
2.853170e-02	2.850000e-01	-9.270510e-03
2.853170e-02	2.800000e-01	-9.270510e-03
2.853170e-02	2.750000e-01	-9.270510e-03
2.853170e-02	2.700000e-01	-9.270510e-03
2.853170e-02	2.650000e-01	-9.270510e-03
2.853170e-02	2.600000e-01	-9.270510e-03
2.853170e-02	2.550000e-01	-9.270510e-03
2.853170e-02	2.500000e-01	-9.270510e-03
2.853170e-02	2.450000e-01	-9.270510e-03
2.853170e-02	2.400000e-01	-9.270510e-03
2.853170e-02	2.350000e-01	-9.270510e-03
2.853170e-02	2.300000e-01	-9.270510e-03
2.853170e-02	2.250000e-01	-9.270510e-03
2.853170e-02	2.200000e-01	-9.270510e-03
2.853170e-02	2.150000e-01	-9.270510e-03
2.853170e-02	2.100000e-01	-9.270510e-03
2.853170e-02	2.050000e-01	-9.270510e-03
2.853170e-02	2.000000e-01	-9.270510e-03
2.853170e-02	1.950000e-01	-9.270510e-03
2.853170e-02	1.900000e-01	-9.270510e-03
2.853170e-02	1.850000e-01	-9.270510e-03
2.853170e-02	1.800000e-01	-9.270510e-03
2.853170e-02	1.750000e-01	-9.270510e-03
2.853170e-02	1.700000e-01	-9.270510e-03
2.853170e-02	1.650000e-01	-9.270510e-03
2.853170e-02	1.600000e-01	-9.270510e-03
2.853170e-02	1.550000e-01	-9.270510e-03
2.853170e-02	1.500000e-01	-9.270510e-03
2.853170e-02	1.450000e-01	-9.270510e-03
2.853170e-02	1.400000e-01	-9.270510e-03
2.853170e-02	1.350000e-01	-9.270510e-03
2.853170e-02	1.300000e-01	-9.270510e-03
2.853170e-02	1.250000e-01	-9.270510e-03
2.853170e-02	1.200000e-01	-9.270510e-03
2.853170e-02	1.150000e-01	-9.270510e-03
2.853170e-02	1.100000e-01	-9.270510e-03
2.853170e-02	1.050000e-01	-9.270510e-03
2.853170e-02	1.000000e-01	-9.270510e-03
2.853170e-02	9.500000e-02	-9.270510e-03
2.853170e-02	9.000000e-02	-9.270510e-03
2.853170e-02	8.500000e-02	-9.270510e-03
2.853170e-02	8.000000e-02	-9.270510e-03
2.853170e-02	7.500000e-02	-9.270510e-03
2.853170e-02	7.000000e-02	-9.270510e-03
2.853170e-02	6.500000e-02	-9.270510e-03
2.853170e-02	6.000000e-02	-9.270510e-03
2.853170e-02	5.500000e-02	-9.270510e-03
2.853170e-02	5.000000e-02	-9.270510e-03
2.853170e-02	4.500000e-02	-9.270510e-03
2.853170e-02	4.000000e-02	-9.270510e-03
2.853170e-02	3.500000e-02	-9.270510e-03
2.853170e-02	3.000000e-02	-9.270510e-03
2.853170e-02	2.500000e-02	-9.270510e-03
2.853170e-02	2.000000e-02	-9.270510e-03
2.853170e-02	1.500000e-02	-9.270510e-03
2.853170e-02	1.000000e-02	-9.270510e-03
2.853170e-02	5.000000e-03	-9.270510e-03
2.963065e-02	2.900000e-01	-4.693034e-03
2.963065e-02	2.850000e-01	-4.693034e-03
2.963065e-02	2.800000e-01	-4.693034e-03
2.963065e-02	2.750000e-01	-4.693034e-03
2.963065e-02	2.700000e-01	-4.693034e-03
2.963065e-02	2.650000e-01	-4.693034e-03
2.963065e-02	2.600000e-01	-4.693034e-03
2.963065e-02	2.550000e-01	-4.693034e-03
2.963065e-02	2.500000e-01	-4.693034e-03
2.963065e-02	2.450000e-01	-4.693034e-03
2.963065e-02	2.400000e-01	-4.693034e-03
2.963065e-02	2.350000e-01	-4.693034e-03
2.963065e-02	2.300000e-01	-4.693034e-03
2.963065e-02	2.250000e-01	-4.693034e-03
2.963065e-02	2.200000e-01	-4.693034e-03
2.963065e-02	2.150000e-01	-4.693034e-03
2.963065e-02	2.100000e-01	-4.693034e-03
2.963065e-02	2.050000e-01	-4.693034e-03
2.963065e-02	2.000000e-01	-4.693034e-03
2.963065e-02	1.950000e-01	-4.693034e-03
2.963065e-02	1.900000e-01	-4.693034e-03
2.963065e-02	1.850000e-01	-4.693034e-03
2.963065e-02	1.800000e-01	-4.693034e-03
2.963065e-02	1.750000e-01	-4.693034e-03
2.963065e-02	1.700000e-01	-4.693034e-03
2.963065e-02	1.650000e-01	-4.693034e-03
2.963065e-02	1.600000e-01	-4.693034e-03
2.963065e-02	1.550000e-01	-4.693034e-03
2.963065e-02	1.500000e-01	-4.693034e-03
2.963065e-02	1.450000e-01	-4.693034e-03
2.963065e-02	1.400000e-01	-4.693034e-03
2.963065e-02	1.350000e-01	-4.693034e-03
2.963065e-02	1.300000e-01	-4.693034e-03
2.963065e-02	1.250000e-01	-4.693034e-03
2.963065e-02	1.200000e-01	-4.693034e-03
2.963065e-02	1.150000e-01	-4.693034e-03
2.963065e-02	1.100000e-01	-4.693034e-03
2.963065e-02	1.050000e-01	-4.693034e-03
2.963065e-02	1.000000e-01	-4.693034e-03
2.963065e-02	9.500000e-02	-4.693034e-03
2.963065e-02	9.000000e-02	-4.693034e-03
2.963065e-02	8.500000e-02	-4.693034e-03
2.963065e-02	8.000000e-02	-4.693034e-03
2.963065e-02	7.500000e-02	-4.693034e-03
2.963065e-02	7.000000e-02	-4.693034e-03
2.963065e-02	6.500000e-02	-4.693034e-03
2.963065e-02	6.000000e-02	-4.693034e-03
2.963065e-02	5.500000e-02	-4.693034e-03
2.963065e-02	5.000000e-02	-4.693034e-03
2.963065e-02	4.500000e-02	-4.693034e-03
2.963065e-02	4.000000e-02	-4.693034e-03
2.963065e-02	3.500000e-02	-4.693034e-03
2.963065e-02	3.000000e-02	-4.693034e-03
2.963065e-02	2.500000e-02	-4.693034e-03
2.963065e-02	2.000000e-02	-4.693034e-03
2.963065e-02	1.500000e-02	-4.693034e-03
2.963065e-02	1.000000e-02	-4.693034e-03
2.963065e-02	5.000000e-03	-4.693034e-03
0.000000e+00	3.050000e-01	-3.000000e-02
0.000000e+00	3.000000e-01	-3.000000e-02
3.000000e-02	3.050000e-01	0.000000e+00
2.963065e-02	3.050000e-01	-4.693034e-03
2.853170e-02	3.050000e-01	-9.270510e-03
2.673020e-02	3.050000e-01	-1.361971e-02
2.427051e-02	3.050000e-01	-1.763356e-02
2.121320e-02	3.050000e-01	-2.121320e-02
1.763356e-02	3.050000e-01	-2.427051e-02
1.361971e-02	3.050000e-01	-2.673020e-02
9.270510e-03	3.050000e-01	-2.853170e-02
4.693034e-03	3.050000e-01	-2.963065e-02
3.000000e-02	3.000000e-01	0.000000e+00
4.693034e-03	3.000000e-01	-2.963065e-02
9.270510e-03	3.000000e-01	-2.853170e-02
1.361971e-02	3.000000e-01	-2.673020e-02
1.763356e-02	3.000000e-01	-2.427051e-02
2.121320e-02	3.000000e-01	-2.121320e-02
2.427051e-02	3.000000e-01	-1.763356e-02
2.673020e-02	3.000000e-01	-1.361971e-02
2.853170e-02	3.000000e-01	-9.270510e-03
2.963065e-02	3.000000e-01	-4.693034e-03
0.000000e+00	6.000000e-01	-3.000000e-02
0.000000e+00	3.100000e-01	-3.000000e-02
0.000000e+00	3.150000e-01	-3.000000e-02
0.000000e+00	3.200000e-01	-3.000000e-02
0.000000e+00	3.250000e-01	-3.000000e-02
0.000000e+00	3.300000e-01	-3.000000e-02
0.000000e+00	3.350000e-01	-3.000000e-02
0.000000e+00	3.400000e-01	-3.000000e-02
0.000000e+00	3.450000e-01	-3.000000e-02
0.000000e+00	3.500000e-01	-3.000000e-02
0.000000e+00	3.550000e-01	-3.000000e-02
0.000000e+00	3.600000e-01	-3.000000e-02
0.000000e+00	3.650000e-01	-3.000000e-02
0.000000e+00	3.700000e-01	-3.000000e-02
0.000000e+00	3.750000e-01	-3.000000e-02
0.000000e+00	3.800000e-01	-3.000000e-02
0.000000e+00	3.850000e-01	-3.000000e-02
0.000000e+00	3.900000e-01	-3.000000e-02
0.000000e+00	3.950000e-01	-3.000000e-02
0.000000e+00	4.000000e-01	-3.000000e-02
0.000000e+00	4.050000e-01	-3.000000e-02
0.000000e+00	4.100000e-01	-3.000000e-02
0.000000e+00	4.150000e-01	-3.000000e-02
0.000000e+00	4.200000e-01	-3.000000e-02
0.000000e+00	4.250000e-01	-3.000000e-02
0.000000e+00	4.300000e-01	-3.000000e-02
0.000000e+00	4.350000e-01	-3.000000e-02
0.000000e+00	4.400000e-01	-3.000000e-02
0.000000e+00	4.450000e-01	-3.000000e-02
0.000000e+00	4.500000e-01	-3.000000e-02
0.000000e+00	4.550000e-01	-3.000000e-02
0.000000e+00	4.600000e-01	-3.000000e-02
0.000000e+00	4.650000e-01	-3.000000e-02
0.000000e+00	4.700000e-01	-3.000000e-02
0.000000e+00	4.750000e-01	-3.000000e-02
0.000000e+00	4.800000e-01	-3.000000e-02
0.000000e+00	4.850000e-01	-3.000000e-02
0.000000e+00	4.900000e-01	-3.000000e-02
0.000000e+00	4.950000e-01	-3.000000e-02
0.000000e+00	5.000000e-01	-3.000000e-02
0.000000e+00	5.050000e-01	-3.000000e-02
0.000000e+00	5.100000e-01	-3.000000e-02
0.000000e+00	5.150000e-01	-3.000000e-02
0.000000e+00	5.200000e-01	-3.000000e-02
0.000000e+00	5.250000e-01	-3.000000e-02
0.000000e+00	5.300000e-01	-3.000000e-02
0.000000e+00	5.350000e-01	-3.000000e-02
0.000000e+00	5.400000e-01	-3.000000e-02
0.000000e+00	5.450000e-01	-3.000000e-02
0.000000e+00	5.500000e-01	-3.000000e-02
0.000000e+00	5.550000e-01	-3.000000e-02
0.000000e+00	5.600000e-01	-3.000000e-02
0.000000e+00	5.650000e-01	-3.000000e-02
0.000000e+00	5.700000e-01	-3.000000e-02
0.000000e+00	5.750000e-01	-3.000000e-02
0.000000e+00	5.800000e-01	-3.000000e-02
0.000000e+00	5.850000e-01	-3.000000e-02
0.000000e+00	5.900000e-01	-3.000000e-02
0.000000e+00	5.950000e-01	-3.000000e-02
3.000000e-02	6.000000e-01	0.000000e+00
2.963065e-02	6.000000e-01	-4.693034e-03
2.853170e-02	6.000000e-01	-9.270510e-03
2.673020e-02	6.000000e-01	-1.361971e-02
2.427051e-02	6.000000e-01	-1.763356e-02
2.121320e-02	6.000000e-01	-2.121320e-02
1.763356e-02	6.000000e-01	-2.427051e-02
1.361971e-02	6.000000e-01	-2.673020e-02
9.270510e-03	6.000000e-01	-2.853170e-02
4.693034e-03	6.000000e-01	-2.963065e-02
3.000000e-02	3.100000e-01	0.000000e+00
3.000000e-02	3.150000e-01	0.000000e+00
3.000000e-02	3.200000e-01	0.000000e+00
3.000000e-02	3.250000e-01	0.000000e+00
3.000000e-02	3.300000e-01	0.000000e+00
3.000000e-02	3.350000e-01	0.000000e+00
3.000000e-02	3.400000e-01	0.000000e+00
3.000000e-02	3.450000e-01	0.000000e+00
3.000000e-02	3.500000e-01	0.000000e+00
3.000000e-02	3.550000e-01	0.000000e+00
3.000000e-02	3.600000e-01	0.000000e+00
3.000000e-02	3.650000e-01	0.000000e+00
3.000000e-02	3.700000e-01	0.000000e+00
3.000000e-02	3.750000e-01	0.000000e+00
3.000000e-02	3.800000e-01	0.000000e+00
3.000000e-02	3.850000e-01	0.000000e+00
3.000000e-02	3.900000e-01	0.000000e+00
3.000000e-02	3.950000e-01	0.000000e+00
3.000000e-02	4.000000e-01	0.000000e+00
3.000000e-02	4.050000e-01	0.000000e+00
3.000000e-02	4.100000e-01	0.000000e+00
3.000000e-02	4.150000e-01	0.000000e+00
3.000000e-02	4.200000e-01	0.000000e+00
3.000000e-02	4.250000e-01	0.000000e+00
3.000000e-02	4.300000e-01	0.000000e+00
3.000000e-02	4.350000e-01	0.000000e+00
3.000000e-02	4.400000e-01	0.000000e+00
3.000000e-02	4.450000e-01	0.000000e+00
3.000000e-02	4.500000e-01	0.000000e+00
3.000000e-02	4.550000e-01	0.000000e+00
3.000000e-02	4.600000e-01	0.000000e+00
3.000000e-02	4.650000e-01	0.000000e+00
3.000000e-02	4.700000e-01	0.000000e+00
3.000000e-02	4.750000e-01	0.000000e+00
3.000000e-02	4.800000e-01	0.000000e+00
3.000000e-02	4.850000e-01	0.000000e+00
3.000000e-02	4.900000e-01	0.000000e+00
3.000000e-02	4.950000e-01	0.000000e+00
3.000000e-02	5.000000e-01	0.000000e+00
3.000000e-02	5.050000e-01	0.000000e+00
3.000000e-02	5.100000e-01	0.000000e+00
3.000000e-02	5.150000e-01	0.000000e+00
3.000000e-02	5.200000e-01	0.000000e+00
3.000000e-02	5.250000e-01	0.000000e+00
3.000000e-02	5.300000e-01	0.000000e+00
3.000000e-02	5.350000e-01	0.000000e+00
3.000000e-02	5.400000e-01	0.000000e+00
3.000000e-02	5.450000e-01	0.000000e+00
3.000000e-02	5.500000e-01	0.000000e+00
3.000000e-02	5.550000e-01	0.000000e+00
3.000000e-02	5.600000e-01	0.000000e+00
3.000000e-02	5.650000e-01	0.000000e+00
3.000000e-02	5.700000e-01	0.000000e+00
3.000000e-02	5.750000e-01	0.000000e+00
3.000000e-02	5.800000e-01	0.000000e+00
3.000000e-02	5.850000e-01	0.000000e+00
3.000000e-02	5.900000e-01	0.000000e+00
3.000000e-02	5.950000e-01	0.000000e+00
4.693034e-03	5.950000e-01	-2.963065e-02
4.693034e-03	5.900000e-01	-2.963065e-02
4.693034e-03	5.850000e-01	-2.963065e-02
4.693034e-03	5.800000e-01	-2.963065e-02
4.693034e-03	5.750000e-01	-2.963065e-02
4.693034e-03	5.700000e-01	-2.963065e-02
4.693034e-03	5.650000e-01	-2.963065e-02
4.693034e-03	5.600000e-01	-2.963065e-02
4.693034e-03	5.550000e-01	-2.963065e-02
4.693034e-03	5.500000e-01	-2.963065e-02
4.693034e-03	5.450000e-01	-2.963065e-02
4.693034e-03	5.400000e-01	-2.963065e-02
4.693034e-03	5.350000e-01	-2.963065e-02
4.693034e-03	5.300000e-01	-2.963065e-02
4.693034e-03	5.250000e-01	-2.963065e-02
4.693034e-03	5.200000e-01	-2.963065e-02
4.693034e-03	5.150000e-01	-2.963065e-02
4.693034e-03	5.100000e-01	-2.963065e-02
4.693034e-03	5.050000e-01	-2.963065e-02
4.693034e-03	5.000000e-01	-2.963065e-02
4.693034e-03	4.950000e-01	-2.963065e-02
4.693034e-03	4.900000e-01	-2.963065e-02
4.693034e-03	4.850000e-01	-2.963065e-02
4.693034e-03	4.800000e-01	-2.963065e-02
4.693034e-03	4.750000e-01	-2.963065e-02
4.693034e-03	4.700000e-01	-2.963065e-02
4.693034e-03	4.650000e-01	-2.963065e-02
4.693034e-03	4.600000e-01	-2.963065e-02
4.693034e-03	4.550000e-01	-2.963065e-02
4.693034e-03	4.500000e-01	-2.963065e-02
4.693034e-03	4.450000e-01	-2.963065e-02
4.693034e-03	4.400000e-01	-2.963065e-02
4.693034e-03	4.350000e-01	-2.963065e-02
4.693034e-03	4.300000e-01	-2.963065e-02
4.693034e-03	4.250000e-01	-2.963065e-02
4.693034e-03	4.200000e-01	-2.963065e-02
4.693034e-03	4.150000e-01	-2.963065e-02
4.693034e-03	4.100000e-01	-2.963065e-02
4.693034e-03	4.050000e-01	-2.963065e-02
4.693034e-03	4.000000e-01	-2.963065e-02
4.693034e-03	3.950000e-01	-2.963065e-02
4.693034e-03	3.900000e-01	-2.963065e-02
4.693034e-03	3.850000e-01	-2.963065e-02
4.693034e-03	3.800000e-01	-2.963065e-02
4.693034e-03	3.750000e-01	-2.963065e-02
4.693034e-03	3.700000e-01	-2.963065e-02
4.693034e-03	3.650000e-01	-2.963065e-02
4.693034e-03	3.600000e-01	-2.963065e-02
4.693034e-03	3.550000e-01	-2.963065e-02
4.693034e-03	3.500000e-01	-2.963065e-02
4.693034e-03	3.450000e-01	-2.963065e-02
4.693034e-03	3.400000e-01	-2.963065e-02
4.693034e-03	3.350000e-01	-2.963065e-02
4.693034e-03	3.300000e-01	-2.963065e-02
4.693034e-03	3.250000e-01	-2.963065e-02
4.693034e-03	3.200000e-01	-2.963065e-02
4.693034e-03	3.150000e-01	-2.963065e-02
4.693034e-03	3.100000e-01	-2.963065e-02
9.270510e-03	5.950000e-01	-2.853170e-02
9.270510e-03	5.900000e-01	-2.853170e-02
9.270510e-03	5.850000e-01	-2.853170e-02
9.270510e-03	5.800000e-01	-2.853170e-02
9.270510e-03	5.750000e-01	-2.853170e-02
9.270510e-03	5.700000e-01	-2.853170e-02
9.270510e-03	5.650000e-01	-2.853170e-02
9.270510e-03	5.600000e-01	-2.853170e-02
9.270510e-03	5.550000e-01	-2.853170e-02
9.270510e-03	5.500000e-01	-2.853170e-02
9.270510e-03	5.450000e-01	-2.853170e-02
9.270510e-03	5.400000e-01	-2.853170e-02
9.270510e-03	5.350000e-01	-2.853170e-02
9.270510e-03	5.300000e-01	-2.853170e-02
9.270510e-03	5.250000e-01	-2.853170e-02
9.270510e-03	5.200000e-01	-2.853170e-02
9.270510e-03	5.150000e-01	-2.853170e-02
9.270510e-03	5.100000e-01	-2.853170e-02
9.270510e-03	5.050000e-01	-2.853170e-02
9.270510e-03	5.000000e-01	-2.853170e-02
9.270510e-03	4.950000e-01	-2.853170e-02
9.270510e-03	4.900000e-01	-2.853170e-02
9.270510e-03	4.850000e-01	-2.853170e-02
9.270510e-03	4.800000e-01	-2.853170e-02
9.270510e-03	4.750000e-01	-2.853170e-02
9.270510e-03	4.700000e-01	-2.853170e-02
9.270510e-03	4.650000e-01	-2.853170e-02
9.270510e-03	4.600000e-01	-2.853170e-02
9.270510e-03	4.550000e-01	-2.853170e-02
9.270510e-03	4.500000e-01	-2.853170e-02
9.270510e-03	4.450000e-01	-2.853170e-02
9.270510e-03	4.400000e-01	-2.853170e-02
9.270510e-03	4.350000e-01	-2.853170e-02
9.270510e-03	4.300000e-01	-2.853170e-02
9.270510e-03	4.250000e-01	-2.853170e-02
9.270510e-03	4.200000e-01	-2.853170e-02
9.270510e-03	4.150000e-01	-2.853170e-02
9.270510e-03	4.100000e-01	-2.853170e-02
9.270510e-03	4.050000e-01	-2.853170e-02
9.270510e-03	4.000000e-01	-2.853170e-02
9.270510e-03	3.950000e-01	-2.853170e-02
9.270510e-03	3.900000e-01	-2.853170e-02
9.270510e-03	3.850000e-01	-2.853170e-02
9.270510e-03	3.800000e-01	-2.853170e-02
9.270510e-03	3.750000e-01	-2.853170e-02
9.270510e-03	3.700000e-01	-2.853170e-02
9.270510e-03	3.650000e-01	-2.853170e-02
9.270510e-03	3.600000e-01	-2.853170e-02
9.270510e-03	3.550000e-01	-2.853170e-02
9.270510e-03	3.500000e-01	-2.853170e-02
9.270510e-03	3.450000e-01	-2.853170e-02
9.270510e-03	3.400000e-01	-2.853170e-02
9.270510e-03	3.350000e-01	-2.853170e-02
9.270510e-03	3.300000e-01	-2.853170e-02
9.270510e-03	3.250000e-01	-2.853170e-02
9.270510e-03	3.200000e-01	-2.853170e-02
9.270510e-03	3.150000e-01	-2.853170e-02
9.270510e-03	3.100000e-01	-2.853170e-02
1.361971e-02	5.950000e-01	-2.673020e-02
1.361971e-02	5.900000e-01	-2.673020e-02
1.361971e-02	5.850000e-01	-2.673020e-02
1.361971e-02	5.800000e-01	-2.673020e-02
1.361971e-02	5.750000e-01	-2.673020e-02
1.361971e-02	5.700000e-01	-2.673020e-02
1.361971e-02	5.650000e-01	-2.673020e-02
1.361971e-02	5.600000e-01	-2.673020e-02
1.361971e-02	5.550000e-01	-2.673020e-02
1.361971e-02	5.500000e-01	-2.673020e-02
1.361971e-02	5.450000e-01	-2.673020e-02
1.361971e-02	5.400000e-01	-2.673020e-02
1.361971e-02	5.350000e-01	-2.673020e-02
1.361971e-02	5.300000e-01	-2.673020e-02
1.361971e-02	5.250000e-01	-2.673020e-02
1.361971e-02	5.200000e-01	-2.673020e-02
1.361971e-02	5.150000e-01	-2.673020e-02
1.361971e-02	5.100000e-01	-2.673020e-02
1.361971e-02	5.050000e-01	-2.673020e-02
1.361971e-02	5.000000e-01	-2.673020e-02
1.361971e-02	4.950000e-01	-2.673020e-02
1.361971e-02	4.900000e-01	-2.673020e-02
1.361971e-02	4.850000e-01	-2.673020e-02
1.361971e-02	4.800000e-01	-2.673020e-02
1.361971e-02	4.750000e-01	-2.673020e-02
1.361971e-02	4.700000e-01	-2.673020e-02
1.361971e-02	4.650000e-01	-2.673020e-02
1.361971e-02	4.600000e-01	-2.673020e-02
1.361971e-02	4.550000e-01	-2.673020e-02
1.361971e-02	4.500000e-01	-2.673020e-02
1.361971e-02	4.450000e-01	-2.673020e-02
1.361971e-02	4.400000e-01	-2.673020e-02
1.361971e-02	4.350000e-01	-2.673020e-02
1.361971e-02	4.300000e-01	-2.673020e-02
1.361971e-02	4.250000e-01	-2.673020e-02
1.361971e-02	4.200000e-01	-2.673020e-02
1.361971e-02	4.150000e-01	-2.673020e-02
1.361971e-02	4.100000e-01	-2.673020e-02
1.361971e-02	4.050000e-01	-2.673020e-02
1.361971e-02	4.000000e-01	-2.673020e-02
1.361971e-02	3.950000e-01	-2.673020e-02
1.361971e-02	3.900000e-01	-2.673020e-02
1.361971e-02	3.850000e-01	-2.673020e-02
1.361971e-02	3.800000e-01	-2.673020e-02
1.361971e-02	3.750000e-01	-2.673020e-02
1.361971e-02	3.700000e-01	-2.673020e-02
1.361971e-02	3.650000e-01	-2.673020e-02
1.361971e-02	3.600000e-01	-2.673020e-02
1.361971e-02	3.550000e-01	-2.673020e-02
1.361971e-02	3.500000e-01	-2.673020e-02
1.361971e-02	3.450000e-01	-2.673020e-02
1.361971e-02	3.400000e-01	-2.673020e-02
1.361971e-02	3.350000e-01	-2.673020e-02
1.361971e-02	3.300000e-01	-2.673020e-02
1.361971e-02	3.250000e-01	-2.673020e-02
1.361971e-02	3.200000e-01	-2.673020e-02
1.361971e-02	3.150000e-01	-2.673020e-02
1.361971e-02	3.100000e-01	-2.673020e-02
1.763356e-02	5.950000e-01	-2.427051e-02
1.763356e-02	5.900000e-01	-2.427051e-02
1.763356e-02	5.850000e-01	-2.427051e-02
1.763356e-02	5.800000e-01	-2.427051e-02
1.763356e-02	5.750000e-01	-2.427051e-02
1.763356e-02	5.700000e-01	-2.427051e-02
1.763356e-02	5.650000e-01	-2.427051e-02
1.763356e-02	5.600000e-01	-2.427051e-02
1.763356e-02	5.550000e-01	-2.427051e-02
1.763356e-02	5.500000e-01	-2.427051e-02
1.763356e-02	5.450000e-01	-2.427051e-02
1.763356e-02	5.400000e-01	-2.427051e-02
1.763356e-02	5.350000e-01	-2.427051e-02
1.763356e-02	5.300000e-01	-2.427051e-02
1.763356e-02	5.250000e-01	-2.427051e-02
1.763356e-02	5.200000e-01	-2.427051e-02
1.763356e-02	5.150000e-01	-2.427051e-02
1.763356e-02	5.100000e-01	-2.427051e-02
1.763356e-02	5.050000e-01	-2.427051e-02
1.763356e-02	5.000000e-01	-2.427051e-02
1.763356e-02	4.950000e-01	-2.427051e-02
1.763356e-02	4.900000e-01	-2.427051e-02
1.763356e-02	4.850000e-01	-2.427051e-02
1.763356e-02	4.800000e-01	-2.427051e-02
1.763356e-02	4.750000e-01	-2.427051e-02
1.763356e-02	4.700000e-01	-2.427051e-02
1.763356e-02	4.650000e-01	-2.427051e-02
1.763356e-02	4.600000e-01	-2.427051e-02
1.763356e-02	4.550000e-01	-2.427051e-02
1.763356e-02	4.500000e-01	-2.427051e-02
1.763356e-02	4.450000e-01	-2.427051e-02
1.763356e-02	4.400000e-01	-2.427051e-02
1.763356e-02	4.350000e-01	-2.427051e-02
1.763356e-02	4.300000e-01	-2.427051e-02
1.763356e-02	4.250000e-01	-2.427051e-02
1.763356e-02	4.200000e-01	-2.427051e-02
1.763356e-02	4.150000e-01	-2.427051e-02
1.763356e-02	4.100000e-01	-2.427051e-02
1.763356e-02	4.050000e-01	-2.427051e-02
1.763356e-02	4.000000e-01	-2.427051e-02
1.763356e-02	3.950000e-01	-2.427051e-02
1.763356e-02	3.900000e-01	-2.427051e-02
1.763356e-02	3.850000e-01	-2.427051e-02
1.763356e-02	3.800000e-01	-2.427051e-02
1.763356e-02	3.750000e-01	-2.427051e-02
1.763356e-02	3.700000e-01	-2.427051e-02
1.763356e-02	3.650000e-01	-2.427051e-02
1.763356e-02	3.600000e-01	-2.427051e-02
1.763356e-02	3.550000e-01	-2.427051e-02
1.763356e-02	3.500000e-01	-2.427051e-02
1.763356e-02	3.450000e-01	-2.427051e-02
1.763356e-02	3.400000e-01	-2.427051e-02
1.763356e-02	3.350000e-01	-2.427051e-02
1.763356e-02	3.300000e-01	-2.427051e-02
1.763356e-02	3.250000e-01	-2.427051e-02
1.763356e-02	3.200000e-01	-2.427051e-02
1.763356e-02	3.150000e-01	-2.427051e-02
1.763356e-02	3.100000e-01	-2.427051e-02
2.121320e-02	5.950000e-01	-2.121320e-02
2.121320e-02	5.900000e-01	-2.121320e-02
2.121320e-02	5.850000e-01	-2.121320e-02
2.121320e-02	5.800000e-01	-2.121320e-02
2.121320e-02	5.750000e-01	-2.121320e-02
2.121320e-02	5.700000e-01	-2.121320e-02
2.121320e-02	5.650000e-01	-2.121320e-02
2.121320e-02	5.600000e-01	-2.121320e-02
2.121320e-02	5.550000e-01	-2.121320e-02
2.121320e-02	5.500000e-01	-2.121320e-02
2.121320e-02	5.450000e-01	-2.121320e-02
2.121320e-02	5.400000e-01	-2.121320e-02
2.121320e-02	5.350000e-01	-2.121320e-02
2.121320e-02	5.300000e-01	-2.121320e-02
2.121320e-02	5.250000e-01	-2.121320e-02
2.121320e-02	5.200000e-01	-2.121320e-02
2.121320e-02	5.150000e-01	-2.121320e-02
2.121320e-02	5.100000e-01	-2.121320e-02
2.121320e-02	5.050000e-01	-2.121320e-02
2.121320e-02	5.000000e-01	-2.121320e-02
2.121320e-02	4.950000e-01	-2.121320e-02
2.121320e-02	4.900000e-01	-2.121320e-02
2.121320e-02	4.850000e-01	-2.121320e-02
2.121320e-02	4.800000e-01	-2.121320e-02
2.121320e-02	4.750000e-01	-2.121320e-02
2.121320e-02	4.700000e-01	-2.121320e-02
2.121320e-02	4.650000e-01	-2.121320e-02
2.121320e-02	4.600000e-01	-2.121320e-02
2.121320e-02	4.550000e-01	-2.121320e-02
2.121320e-02	4.500000e-01	-2.121320e-02
2.121320e-02	4.450000e-01	-2.121320e-02
2.121320e-02	4.400000e-01	-2.121320e-02
2.121320e-02	4.350000e-01	-2.121320e-02
2.121320e-02	4.300000e-01	-2.121320e-02
2.121320e-02	4.250000e-01	-2.121320e-02
2.121320e-02	4.200000e-01	-2.121320e-02
2.121320e-02	4.150000e-01	-2.121320e-02
2.121320e-02	4.100000e-01	-2.121320e-02
2.121320e-02	4.050000e-01	-2.121320e-02
2.121320e-02	4.000000e-01	-2.121320e-02
2.121320e-02	3.950000e-01	-2.121320e-02
2.121320e-02	3.900000e-01	-2.121320e-02
2.121320e-02	3.850000e-01	-2.121320e-02
2.121320e-02	3.800000e-01	-2.121320e-02
2.121320e-02	3.750000e-01	-2.121320e-02
2.121320e-02	3.700000e-01	-2.121320e-02
2.121320e-02	3.650000e-01	-2.121320e-02
2.121320e-02	3.600000e-01	-2.121320e-02
2.121320e-02	3.550000e-01	-2.121320e-02
2.121320e-02	3.500000e-01	-2.121320e-02
2.121320e-02	3.450000e-01	-2.121320e-02
2.121320e-02	3.400000e-01	-2.121320e-02
2.121320e-02	3.350000e-01	-2.121320e-02
2.121320e-02	3.300000e-01	-2.121320e-02
2.121320e-02	3.250000e-01	-2.121320e-02
2.121320e-02	3.200000e-01	-2.121320e-02
2.121320e-02	3.150000e-01	-2.121320e-02
2.121320e-02	3.100000e-01	-2.121320e-02
2.427051e-02	5.950000e-01	-1.763356e-02
2.427051e-02	5.900000e-01	-1.763356e-02
2.427051e-02	5.850000e-01	-1.763356e-02
2.427051e-02	5.800000e-01	-1.763356e-02
2.427051e-02	5.750000e-01	-1.763356e-02
2.427051e-02	5.700000e-01	-1.763356e-02
2.427051e-02	5.650000e-01	-1.763356e-02
2.427051e-02	5.600000e-01	-1.763356e-02
2.427051e-02	5.550000e-01	-1.763356e-02
2.427051e-02	5.500000e-01	-1.763356e-02
2.427051e-02	5.450000e-01	-1.763356e-02
2.427051e-02	5.400000e-01	-1.763356e-02
2.427051e-02	5.350000e-01	-1.763356e-02
2.427051e-02	5.300000e-01	-1.763356e-02
2.427051e-02	5.250000e-01	-1.763356e-02
2.427051e-02	5.200000e-01	-1.763356e-02
2.427051e-02	5.150000e-01	-1.763356e-02
2.427051e-02	5.100000e-01	-1.763356e-02
2.427051e-02	5.050000e-01	-1.763356e-02
2.427051e-02	5.000000e-01	-1.763356e-02
2.427051e-02	4.950000e-01	-1.763356e-02
2.427051e-02	4.900000e-01	-1.763356e-02
2.427051e-02	4.850000e-01	-1.763356e-02
2.427051e-02	4.800000e-01	-1.763356e-02
2.427051e-02	4.750000e-01	-1.763356e-02
2.427051e-02	4.700000e-01	-1.763356e-02
2.427051e-02	4.650000e-01	-1.763356e-02
2.427051e-02	4.600000e-01	-1.763356e-02
2.427051e-02	4.550000e-01	-1.763356e-02
2.427051e-02	4.500000e-01	-1.763356e-02
2.427051e-02	4.450000e-01	-1.763356e-02
2.427051e-02	4.400000e-01	-1.763356e-02
2.427051e-02	4.350000e-01	-1.763356e-02
2.427051e-02	4.300000e-01	-1.763356e-02
2.427051e-02	4.250000e-01	-1.763356e-02
2.427051e-02	4.200000e-01	-1.763356e-02
2.427051e-02	4.150000e-01	-1.763356e-02
2.427051e-02	4.100000e-01	-1.763356e-02
2.427051e-02	4.050000e-01	-1.763356e-02
2.427051e-02	4.000000e-01	-1.763356e-02
2.427051e-02	3.950000e-01	-1.763356e-02
2.427051e-02	3.900000e-01	-1.763356e-02
2.427051e-02	3.850000e-01	-1.763356e-02
2.427051e-02	3.800000e-01	-1.763356e-02
2.427051e-02	3.750000e-01	-1.763356e-02
2.427051e-02	3.700000e-01	-1.763356e-02
2.427051e-02	3.650000e-01	-1.763356e-02
2.427051e-02	3.600000e-01	-1.763356e-02
2.427051e-02	3.550000e-01	-1.763356e-02
2.427051e-02	3.500000e-01	-1.763356e-02
2.427051e-02	3.450000e-01	-1.763356e-02
2.427051e-02	3.400000e-01	-1.763356e-02
2.427051e-02	3.350000e-01	-1.763356e-02
2.427051e-02	3.300000e-01	-1.763356e-02
2.427051e-02	3.250000e-01	-1.763356e-02
2.427051e-02	3.200000e-01	-1.763356e-02
2.427051e-02	3.150000e-01	-1.763356e-02
2.427051e-02	3.100000e-01	-1.763356e-02
2.673020e-02	5.950000e-01	-1.361971e-02
2.673020e-02	5.900000e-01	-1.361971e-02
2.673020e-02	5.850000e-01	-1.361971e-02
2.673020e-02	5.800000e-01	-1.361971e-02
2.673020e-02	5.750000e-01	-1.361971e-02
2.673020e-02	5.700000e-01	-1.361971e-02
2.673020e-02	5.650000e-01	-1.361971e-02
2.673020e-02	5.600000e-01	-1.361971e-02
2.673020e-02	5.550000e-01	-1.361971e-02
2.673020e-02	5.500000e-01	-1.361971e-02
2.673020e-02	5.450000e-01	-1.361971e-02
2.673020e-02	5.400000e-01	-1.361971e-02
2.673020e-02	5.350000e-01	-1.361971e-02
2.673020e-02	5.300000e-01	-1.361971e-02
2.673020e-02	5.250000e-01	-1.361971e-02
2.673020e-02	5.200000e-01	-1.361971e-02
2.673020e-02	5.150000e-01	-1.361971e-02
2.673020e-02	5.100000e-01	-1.361971e-02
2.673020e-02	5.050000e-01	-1.361971e-02
2.673020e-02	5.000000e-01	-1.361971e-02
2.673020e-02	4.950000e-01	-1.361971e-02
2.673020e-02	4.900000e-01	-1.361971e-02
2.673020e-02	4.850000e-01	-1.361971e-02
2.673020e-02	4.800000e-01	-1.361971e-02
2.673020e-02	4.750000e-01	-1.361971e-02
2.673020e-02	4.700000e-01	-1.361971e-02
2.673020e-02	4.650000e-01	-1.361971e-02
2.673020e-02	4.600000e-01	-1.361971e-02
2.673020e-02	4.550000e-01	-1.361971e-02
2.673020e-02	4.500000e-01	-1.361971e-02
2.673020e-02	4.450000e-01	-1.361971e-02
2.673020e-02	4.400000e-01	-1.361971e-02
2.673020e-02	4.350000e-01	-1.361971e-02
2.673020e-02	4.300000e-01	-1.361971e-02
2.673020e-02	4.250000e-01	-1.361971e-02
2.673020e-02	4.200000e-01	-1.361971e-02
2.673020e-02	4.150000e-01	-1.361971e-02
2.673020e-02	4.100000e-01	-1.361971e-02
2.673020e-02	4.050000e-01	-1.361971e-02
2.673020e-02	4.000000e-01	-1.361971e-02
2.673020e-02	3.950000e-01	-1.361971e-02
2.673020e-02	3.900000e-01	-1.361971e-02
2.673020e-02	3.850000e-01	-1.361971e-02
2.673020e-02	3.800000e-01	-1.361971e-02
2.673020e-02	3.750000e-01	-1.361971e-02
2.673020e-02	3.700000e-01	-1.361971e-02
2.673020e-02	3.650000e-01	-1.361971e-02
2.673020e-02	3.600000e-01	-1.361971e-02
2.673020e-02	3.550000e-01	-1.361971e-02
2.673020e-02	3.500000e-01	-1.361971e-02
2.673020e-02	3.450000e-01	-1.361971e-02
2.673020e-02	3.400000e-01	-1.361971e-02
2.673020e-02	3.350000e-01	-1.361971e-02
2.673020e-02	3.300000e-01	-1.361971e-02
2.673020e-02	3.250000e-01	-1.361971e-02
2.673020e-02	3.200000e-01	-1.361971e-02
2.673020e-02	3.150000e-01	-1.361971e-02
2.673020e-02	3.100000e-01	-1.361971e-02
2.853170e-02	5.950000e-01	-9.270510e-03
2.853170e-02	5.900000e-01	-9.270510e-03
2.853170e-02	5.850000e-01	-9.270510e-03
2.853170e-02	5.800000e-01	-9.270510e-03
2.853170e-02	5.750000e-01	-9.270510e-03
2.853170e-02	5.700000e-01	-9.270510e-03
2.853170e-02	5.650000e-01	-9.270510e-03
2.853170e-02	5.600000e-01	-9.270510e-03
2.853170e-02	5.550000e-01	-9.270510e-03
2.853170e-02	5.500000e-01	-9.270510e-03
2.853170e-02	5.450000e-01	-9.270510e-03
2.853170e-02	5.400000e-01	-9.270510e-03
2.853170e-02	5.350000e-01	-9.270510e-03
2.853170e-02	5.300000e-01	-9.270510e-03
2.853170e-02	5.250000e-01	-9.270510e-03
2.853170e-02	5.200000e-01	-9.270510e-03
2.853170e-02	5.150000e-01	-9.270510e-03
2.853170e-02	5.100000e-01	-9.270510e-03
2.853170e-02	5.050000e-01	-9.270510e-03
2.853170e-02	5.000000e-01	-9.270510e-03
2.853170e-02	4.950000e-01	-9.270510e-03
2.853170e-02	4.900000e-01	-9.270510e-03
2.853170e-02	4.850000e-01	-9.270510e-03
2.853170e-02	4.800000e-01	-9.270510e-03
2.853170e-02	4.750000e-01	-9.270510e-03
2.853170e-02	4.700000e-01	-9.270510e-03
2.853170e-02	4.650000e-01	-9.270510e-03
2.853170e-02	4.600000e-01	-9.270510e-03
2.853170e-02	4.550000e-01	-9.270510e-03
2.853170e-02	4.500000e-01	-9.270510e-03
2.853170e-02	4.450000e-01	-9.270510e-03
2.853170e-02	4.400000e-01	-9.270510e-03
2.853170e-02	4.350000e-01	-9.270510e-03
2.853170e-02	4.300000e-01	-9.270510e-03
2.853170e-02	4.250000e-01	-9.270510e-03
2.853170e-02	4.200000e-01	-9.270510e-03
2.853170e-02	4.150000e-01	-9.270510e-03
2.853170e-02	4.100000e-01	-9.270510e-03
2.853170e-02	4.050000e-01	-9.270510e-03
2.853170e-02	4.000000e-01	-9.270510e-03
2.853170e-02	3.950000e-01	-9.270510e-03
2.853170e-02	3.900000e-01	-9.270510e-03
2.853170e-02	3.850000e-01	-9.270510e-03
2.853170e-02	3.800000e-01	-9.270510e-03
2.853170e-02	3.750000e-01	-9.270510e-03
2.853170e-02	3.700000e-01	-9.270510e-03
2.853170e-02	3.650000e-01	-9.270510e-03
2.853170e-02	3.600000e-01	-9.270510e-03
2.853170e-02	3.550000e-01	-9.270510e-03
2.853170e-02	3.500000e-01	-9.270510e-03
2.853170e-02	3.450000e-01	-9.270510e-03
2.853170e-02	3.400000e-01	-9.270510e-03
2.853170e-02	3.350000e-01	-9.270510e-03
2.853170e-02	3.300000e-01	-9.270510e-03
2.853170e-02	3.250000e-01	-9.270510e-03
2.853170e-02	3.200000e-01	-9.270510e-03
2.853170e-02	3.150000e-01	-9.270510e-03
2.853170e-02	3.100000e-01	-9.270510e-03
2.963065e-02	5.950000e-01	-4.693034e-03
2.963065e-02	5.900000e-01	-4.693034e-03
2.963065e-02	5.850000e-01	-4.693034e-03
2.963065e-02	5.800000e-01	-4.693034e-03
2.963065e-02	5.750000e-01	-4.693034e-03
2.963065e-02	5.700000e-01	-4.693034e-03
2.963065e-02	5.650000e-01	-4.693034e-03
2.963065e-02	5.600000e-01	-4.693034e-03
2.963065e-02	5.550000e-01	-4.693034e-03
2.963065e-02	5.500000e-01	-4.693034e-03
2.963065e-02	5.450000e-01	-4.693034e-03
2.963065e-02	5.400000e-01	-4.693034e-03
2.963065e-02	5.350000e-01	-4.693034e-03
2.963065e-02	5.300000e-01	-4.693034e-03
2.963065e-02	5.250000e-01	-4.693034e-03
2.963065e-02	5.200000e-01	-4.693034e-03
2.963065e-02	5.150000e-01	-4.693034e-03
2.963065e-02	5.100000e-01	-4.693034e-03
2.963065e-02	5.050000e-01	-4.693034e-03
2.963065e-02	5.000000e-01	-4.693034e-03
2.963065e-02	4.950000e-01	-4.693034e-03
2.963065e-02	4.900000e-01	-4.693034e-03
2.963065e-02	4.850000e-01	-4.693034e-03
2.963065e-02	4.800000e-01	-4.693034e-03
2.963065e-02	4.750000e-01	-4.693034e-03
2.963065e-02	4.700000e-01	-4.693034e-03
2.963065e-02	4.650000e-01	-4.693034e-03
2.963065e-02	4.600000e-01	-4.693034e-03
2.963065e-02	4.550000e-01	-4.693034e-03
2.963065e-02	4.500000e-01	-4.693034e-03
2.963065e-02	4.450000e-01	-4.693034e-03
2.963065e-02	4.400000e-01	-4.693034e-03
2.963065e-02	4.350000e-01	-4.693034e-03
2.963065e-02	4.300000e-01	-4.693034e-03
2.963065e-02	4.250000e-01	-4.693034e-03
2.963065e-02	4.200000e-01	-4.693034e-03
2.963065e-02	4.150000e-01	-4.693034e-03
2.963065e-02	4.100000e-01	-4.693034e-03
2.963065e-02	4.050000e-01	-4.693034e-03
2.963065e-02	4.000000e-01	-4.693034e-03
2.963065e-02	3.950000e-01	-4.693034e-03
2.963065e-02	3.900000e-01	-4.693034e-03
2.963065e-02	3.850000e-01	-4.693034e-03
2.963065e-02	3.800000e-01	-4.693034e-03
2.963065e-02	3.750000e-01	-4.693034e-03
2.963065e-02	3.700000e-01	-4.693034e-03
2.963065e-02	3.650000e-01	-4.693034e-03
2.963065e-02	3.600000e-01	-4.693034e-03
2.963065e-02	3.550000e-01	-4.693034e-03
2.963065e-02	3.500000e-01	-4.693034e-03
2.963065e-02	3.450000e-01	-4.693034e-03
2.963065e-02	3.400000e-01	-4.693034e-03
2.963065e-02	3.350000e-01	-4.693034e-03
2.963065e-02	3.300000e-01	-4.693034e-03
2.963065e-02	3.250000e-01	-4.693034e-03
2.963065e-02	3.200000e-01	-4.693034e-03
2.963065e-02	3.150000e-01	-4.693034e-03
2.963065e-02	3.100000e-01	-4.693034e-03
-3.000000e-02	0.000000e+00	0.000000e+00
-4.693034e-03	0.000000e+00	-2.963065e-02
-9.270510e-03	0.000000e+00	-2.853170e-02
-1.361971e-02	0.000000e+00	-2.673020e-02
-1.763356e-02	0.000000e+00	-2.427051e-02
-2.121320e-02	0.000000e+00	-2.121320e-02
-2.427051e-02	0.000000e+00	-1.763356e-02
-2.673020e-02	0.000000e+00	-1.361971e-02
-2.853170e-02	0.000000e+00	-9.270510e-03
-2.963065e-02	0.000000e+00	-4.693034e-03
-3.000000e-02	2.950000e-01	0.000000e+00
-3.000000e-02	5.000000e-03	0.000000e+00
-3.000000e-02	1.000000e-02	0.000000e+00
-3.000000e-02	1.500000e-02	0.000000e+00
-3.000000e-02	2.000000e-02	0.000000e+00
-3.000000e-02	2.500000e-02	0.000000e+00
-3.000000e-02	3.000000e-02	0.000000e+00
-3.000000e-02	3.500000e-02	0.000000e+00
-3.000000e-02	4.000000e-02	0.000000e+00
-3.000000e-02	4.500000e-02	0.000000e+00
-3.000000e-02	5.000000e-02	0.000000e+00
-3.000000e-02	5.500000e-02	0.000000e+00
-3.000000e-02	6.000000e-02	0.000000e+00
-3.000000e-02	6.500000e-02	0.000000e+00
-3.000000e-02	7.000000e-02	0.000000e+00
-3.000000e-02	7.500000e-02	0.000000e+00
-3.000000e-02	8.000000e-02	0.000000e+00
-3.000000e-02	8.500000e-02	0.000000e+00
-3.000000e-02	9.000000e-02	0.000000e+00
-3.000000e-02	9.500000e-02	0.000000e+00
-3.000000e-02	1.000000e-01	0.000000e+00
-3.000000e-02	1.050000e-01	0.000000e+00
-3.000000e-02	1.100000e-01	0.000000e+00
-3.000000e-02	1.150000e-01	0.000000e+00
-3.000000e-02	1.200000e-01	0.000000e+00
-3.000000e-02	1.250000e-01	0.000000e+00
-3.000000e-02	1.300000e-01	0.000000e+00
-3.000000e-02	1.350000e-01	0.000000e+00
-3.000000e-02	1.400000e-01	0.000000e+00
-3.000000e-02	1.450000e-01	0.000000e+00
-3.000000e-02	1.500000e-01	0.000000e+00
-3.000000e-02	1.550000e-01	0.000000e+00
-3.000000e-02	1.600000e-01	0.000000e+00
-3.000000e-02	1.650000e-01	0.000000e+00
-3.000000e-02	1.700000e-01	0.000000e+00
-3.000000e-02	1.750000e-01	0.000000e+00
-3.000000e-02	1.800000e-01	0.000000e+00
-3.000000e-02	1.850000e-01	0.000000e+00
-3.000000e-02	1.900000e-01	0.000000e+00
-3.000000e-02	1.950000e-01	0.000000e+00
-3.000000e-02	2.000000e-01	0.000000e+00
-3.000000e-02	2.050000e-01	0.000000e+00
-3.000000e-02	2.100000e-01	0.000000e+00
-3.000000e-02	2.150000e-01	0.000000e+00
-3.000000e-02	2.200000e-01	0.000000e+00
-3.000000e-02	2.250000e-01	0.000000e+00
-3.000000e-02	2.300000e-01	0.000000e+00
-3.000000e-02	2.350000e-01	0.000000e+00
-3.000000e-02	2.400000e-01	0.000000e+00
-3.000000e-02	2.450000e-01	0.000000e+00
-3.000000e-02	2.500000e-01	0.000000e+00
-3.000000e-02	2.550000e-01	0.000000e+00
-3.000000e-02	2.600000e-01	0.000000e+00
-3.000000e-02	2.650000e-01	0.000000e+00
-3.000000e-02	2.700000e-01	0.000000e+00
-3.000000e-02	2.750000e-01	0.000000e+00
-3.000000e-02	2.800000e-01	0.000000e+00
-3.000000e-02	2.850000e-01	0.000000e+00
-3.000000e-02	2.900000e-01	0.000000e+00
-4.693034e-03	2.950000e-01	-2.963065e-02
-9.270510e-03	2.950000e-01	-2.853170e-02
-1.361971e-02	2.950000e-01	-2.673020e-02
-1.763356e-02	2.950000e-01	-2.427051e-02
-2.121320e-02	2.950000e-01	-2.121320e-02
-2.427051e-02	2.950000e-01	-1.763356e-02
-2.673020e-02	2.950000e-01	-1.361971e-02
-2.853170e-02	2.950000e-01	-9.270510e-03
-2.963065e-02	2.950000e-01	-4.693034e-03
-2.963065e-02	2.900000e-01	-4.693034e-03
-2.963065e-02	2.850000e-01	-4.693034e-03
-2.963065e-02	2.800000e-01	-4.693034e-03
-2.963065e-02	2.750000e-01	-4.693034e-03
-2.963065e-02	2.700000e-01	-4.693034e-03
-2.963065e-02	2.650000e-01	-4.693034e-03
-2.963065e-02	2.600000e-01	-4.693034e-03
-2.963065e-02	2.550000e-01	-4.693034e-03
-2.963065e-02	2.500000e-01	-4.693034e-03
-2.963065e-02	2.450000e-01	-4.693034e-03
-2.963065e-02	2.400000e-01	-4.693034e-03
-2.963065e-02	2.350000e-01	-4.693034e-03
-2.963065e-02	2.300000e-01	-4.693034e-03
-2.963065e-02	2.250000e-01	-4.693034e-03
-2.963065e-02	2.200000e-01	-4.693034e-03
-2.963065e-02	2.150000e-01	-4.693034e-03
-2.963065e-02	2.100000e-01	-4.693034e-03
-2.963065e-02	2.050000e-01	-4.693034e-03
-2.963065e-02	2.000000e-01	-4.693034e-03
-2.963065e-02	1.950000e-01	-4.693034e-03
-2.963065e-02	1.900000e-01	-4.693034e-03
-2.963065e-02	1.850000e-01	-4.693034e-03
-2.963065e-02	1.800000e-01	-4.693034e-03
-2.963065e-02	1.750000e-01	-4.693034e-03
-2.963065e-02	1.700000e-01	-4.693034e-03
-2.963065e-02	1.650000e-01	-4.693034e-03
-2.963065e-02	1.600000e-01	-4.693034e-03
-2.963065e-02	1.550000e-01	-4.693034e-03
-2.963065e-02	1.500000e-01	-4.693034e-03
-2.963065e-02	1.450000e-01	-4.693034e-03
-2.963065e-02	1.400000e-01	-4.693034e-03
-2.963065e-02	1.350000e-01	-4.693034e-03
-2.963065e-02	1.300000e-01	-4.693034e-03
-2.963065e-02	1.250000e-01	-4.693034e-03
-2.963065e-02	1.200000e-01	-4.693034e-03
-2.963065e-02	1.150000e-01	-4.693034e-03
-2.963065e-02	1.100000e-01	-4.693034e-03
-2.963065e-02	1.050000e-01	-4.693034e-03
-2.963065e-02	1.000000e-01	-4.693034e-03
-2.963065e-02	9.500000e-02	-4.693034e-03
-2.963065e-02	9.000000e-02	-4.693034e-03
-2.963065e-02	8.500000e-02	-4.693034e-03
-2.963065e-02	8.000000e-02	-4.693034e-03
-2.963065e-02	7.500000e-02	-4.693034e-03
-2.963065e-02	7.000000e-02	-4.693034e-03
-2.963065e-02	6.500000e-02	-4.693034e-03
-2.963065e-02	6.000000e-02	-4.693034e-03
-2.963065e-02	5.500000e-02	-4.693034e-03
-2.963065e-02	5.000000e-02	-4.693034e-03
-2.963065e-02	4.500000e-02	-4.693034e-03
-2.963065e-02	4.000000e-02	-4.693034e-03
-2.963065e-02	3.500000e-02	-4.693034e-03
-2.963065e-02	3.000000e-02	-4.693034e-03
-2.963065e-02	2.500000e-02	-4.693034e-03
-2.963065e-02	2.000000e-02	-4.693034e-03
-2.963065e-02	1.500000e-02	-4.693034e-03
-2.963065e-02	1.000000e-02	-4.693034e-03
-2.963065e-02	5.000000e-03	-4.693034e-03
-2.853170e-02	2.900000e-01	-9.270510e-03
-2.853170e-02	2.850000e-01	-9.270510e-03
-2.853170e-02	2.800000e-01	-9.270510e-03
-2.853170e-02	2.750000e-01	-9.270510e-03
-2.853170e-02	2.700000e-01	-9.270510e-03
-2.853170e-02	2.650000e-01	-9.270510e-03
-2.853170e-02	2.600000e-01	-9.270510e-03
-2.853170e-02	2.550000e-01	-9.270510e-03
-2.853170e-02	2.500000e-01	-9.270510e-03
-2.853170e-02	2.450000e-01	-9.270510e-03
-2.853170e-02	2.400000e-01	-9.270510e-03
-2.853170e-02	2.350000e-01	-9.270510e-03
-2.853170e-02	2.300000e-01	-9.270510e-03
-2.853170e-02	2.250000e-01	-9.270510e-03
-2.853170e-02	2.200000e-01	-9.270510e-03
-2.853170e-02	2.150000e-01	-9.270510e-03
-2.853170e-02	2.100000e-01	-9.270510e-03
-2.853170e-02	2.050000e-01	-9.270510e-03
-2.853170e-02	2.000000e-01	-9.270510e-03
-2.853170e-02	1.950000e-01	-9.270510e-03
-2.853170e-02	1.900000e-01	-9.270510e-03
-2.853170e-02	1.850000e-01	-9.270510e-03
-2.853170e-02	1.800000e-01	-9.270510e-03
-2.853170e-02	1.750000e-01	-9.270510e-03
-2.853170e-02	1.700000e-01	-9.270510e-03
-2.853170e-02	1.650000e-01	-9.270510e-03
-2.853170e-02	1.600000e-01	-9.270510e-03
-2.853170e-02	1.550000e-01	-9.270510e-03
-2.853170e-02	1.500000e-01	-9.270510e-03
-2.853170e-02	1.450000e-01	-9.270510e-03
-2.853170e-02	1.400000e-01	-9.270510e-03
-2.853170e-02	1.350000e-01	-9.270510e-03
-2.853170e-02	1.300000e-01	-9.270510e-03
-2.853170e-02	1.250000e-01	-9.270510e-03
-2.853170e-02	1.200000e-01	-9.270510e-03
-2.853170e-02	1.150000e-01	-9.270510e-03
-2.853170e-02	1.100000e-01	-9.270510e-03
-2.853170e-02	1.050000e-01	-9.270510e-03
-2.853170e-02	1.000000e-01	-9.270510e-03
-2.853170e-02	9.500000e-02	-9.270510e-03
-2.853170e-02	9.000000e-02	-9.270510e-03
-2.853170e-02	8.500000e-02	-9.270510e-03
-2.853170e-02	8.000000e-02	-9.270510e-03
-2.853170e-02	7.500000e-02	-9.270510e-03
-2.853170e-02	7.000000e-02	-9.270510e-03
-2.853170e-02	6.500000e-02	-9.270510e-03
-2.853170e-02	6.000000e-02	-9.270510e-03
-2.853170e-02	5.500000e-02	-9.270510e-03
-2.853170e-02	5.000000e-02	-9.270510e-03
-2.853170e-02	4.500000e-02	-9.270510e-03
-2.853170e-02	4.000000e-02	-9.270510e-03
-2.853170e-02	3.500000e-02	-9.270510e-03
-2.853170e-02	3.000000e-02	-9.270510e-03
-2.853170e-02	2.500000e-02	-9.270510e-03
-2.853170e-02	2.000000e-02	-9.270510e-03
-2.853170e-02	1.500000e-02	-9.270510e-03
-2.853170e-02	1.000000e-02	-9.270510e-03
-2.853170e-02	5.000000e-03	-9.270510e-03
-2.673020e-02	2.900000e-01	-1.361971e-02
-2.673020e-02	2.850000e-01	-1.361971e-02
-2.673020e-02	2.800000e-01	-1.361971e-02
-2.673020e-02	2.750000e-01	-1.361971e-02
-2.673020e-02	2.700000e-01	-1.361971e-02
-2.673020e-02	2.650000e-01	-1.361971e-02
-2.673020e-02	2.600000e-01	-1.361971e-02
-2.673020e-02	2.550000e-01	-1.361971e-02
-2.673020e-02	2.500000e-01	-1.361971e-02
-2.673020e-02	2.450000e-01	-1.361971e-02
-2.673020e-02	2.400000e-01	-1.361971e-02
-2.673020e-02	2.350000e-01	-1.361971e-02
-2.673020e-02	2.300000e-01	-1.361971e-02
-2.673020e-02	2.250000e-01	-1.361971e-02
-2.673020e-02	2.200000e-01	-1.361971e-02
-2.673020e-02	2.150000e-01	-1.361971e-02
-2.673020e-02	2.100000e-01	-1.361971e-02
-2.673020e-02	2.050000e-01	-1.361971e-02
-2.673020e-02	2.000000e-01	-1.361971e-02
-2.673020e-02	1.950000e-01	-1.361971e-02
-2.673020e-02	1.900000e-01	-1.361971e-02
-2.673020e-02	1.850000e-01	-1.361971e-02
-2.673020e-02	1.800000e-01	-1.361971e-02
-2.673020e-02	1.750000e-01	-1.361971e-02
-2.673020e-02	1.700000e-01	-1.361971e-02
-2.673020e-02	1.650000e-01	-1.361971e-02
-2.673020e-02	1.600000e-01	-1.361971e-02
-2.673020e-02	1.550000e-01	-1.361971e-02
-2.673020e-02	1.500000e-01	-1.361971e-02
-2.673020e-02	1.450000e-01	-1.361971e-02
-2.673020e-02	1.400000e-01	-1.361971e-02
-2.673020e-02	1.350000e-01	-1.361971e-02
-2.673020e-02	1.300000e-01	-1.361971e-02
-2.673020e-02	1.250000e-01	-1.361971e-02
-2.673020e-02	1.200000e-01	-1.361971e-02
-2.673020e-02	1.150000e-01	-1.361971e-02
-2.673020e-02	1.100000e-01	-1.361971e-02
-2.673020e-02	1.050000e-01	-1.361971e-02
-2.673020e-02	1.000000e-01	-1.361971e-02
-2.673020e-02	9.500000e-02	-1.361971e-02
-2.673020e-02	9.000000e-02	-1.361971e-02
-2.673020e-02	8.500000e-02	-1.361971e-02
-2.673020e-02	8.000000e-02	-1.361971e-02
-2.673020e-02	7.500000e-02	-1.361971e-02
-2.673020e-02	7.000000e-02	-1.361971e-02
-2.673020e-02	6.500000e-02	-1.361971e-02
-2.673020e-02	6.000000e-02	-1.361971e-02
-2.673020e-02	5.500000e-02	-1.361971e-02
-2.673020e-02	5.000000e-02	-1.361971e-02
-2.673020e-02	4.500000e-02	-1.361971e-02
-2.673020e-02	4.000000e-02	-1.361971e-02
-2.673020e-02	3.500000e-02	-1.361971e-02
-2.673020e-02	3.000000e-02	-1.361971e-02
-2.673020e-02	2.500000e-02	-1.361971e-02
-2.673020e-02	2.000000e-02	-1.361971e-02
-2.673020e-02	1.500000e-02	-1.361971e-02
-2.673020e-02	1.000000e-02	-1.361971e-02
-2.673020e-02	5.000000e-03	-1.361971e-02
-2.427051e-02	2.900000e-01	-1.763356e-02
-2.427051e-02	2.850000e-01	-1.763356e-02
-2.427051e-02	2.800000e-01	-1.763356e-02
-2.427051e-02	2.750000e-01	-1.763356e-02
-2.427051e-02	2.700000e-01	-1.763356e-02
-2.427051e-02	2.650000e-01	-1.763356e-02
-2.427051e-02	2.600000e-01	-1.763356e-02
-2.427051e-02	2.550000e-01	-1.763356e-02
-2.427051e-02	2.500000e-01	-1.763356e-02
-2.427051e-02	2.450000e-01	-1.763356e-02
-2.427051e-02	2.400000e-01	-1.763356e-02
-2.427051e-02	2.350000e-01	-1.763356e-02
-2.427051e-02	2.300000e-01	-1.763356e-02
-2.427051e-02	2.250000e-01	-1.763356e-02
-2.427051e-02	2.200000e-01	-1.763356e-02
-2.427051e-02	2.150000e-01	-1.763356e-02
-2.427051e-02	2.100000e-01	-1.763356e-02
-2.427051e-02	2.050000e-01	-1.763356e-02
-2.427051e-02	2.000000e-01	-1.763356e-02
-2.427051e-02	1.950000e-01	-1.763356e-02
-2.427051e-02	1.900000e-01	-1.763356e-02
-2.427051e-02	1.850000e-01	-1.763356e-02
-2.427051e-02	1.800000e-01	-1.763356e-02
-2.427051e-02	1.750000e-01	-1.763356e-02
-2.427051e-02	1.700000e-01	-1.763356e-02
-2.427051e-02	1.650000e-01	-1.763356e-02
-2.427051e-02	1.600000e-01	-1.763356e-02
-2.427051e-02	1.550000e-01	-1.763356e-02
-2.427051e-02	1.500000e-01	-1.763356e-02
-2.427051e-02	1.450000e-01	-1.763356e-02
-2.427051e-02	1.400000e-01	-1.763356e-02
-2.427051e-02	1.350000e-01	-1.763356e-02
-2.427051e-02	1.300000e-01	-1.763356e-02
-2.427051e-02	1.250000e-01	-1.763356e-02
-2.427051e-02	1.200000e-01	-1.763356e-02
-2.427051e-02	1.150000e-01	-1.763356e-02
-2.427051e-02	1.100000e-01	-1.763356e-02
-2.427051e-02	1.050000e-01	-1.763356e-02
-2.427051e-02	1.000000e-01	-1.763356e-02
-2.427051e-02	9.500000e-02	-1.763356e-02
-2.427051e-02	9.000000e-02	-1.763356e-02
-2.427051e-02	8.500000e-02	-1.763356e-02
-2.427051e-02	8.000000e-02	-1.763356e-02
-2.427051e-02	7.500000e-02	-1.763356e-02
-2.427051e-02	7.000000e-02	-1.763356e-02
-2.427051e-02	6.500000e-02	-1.763356e-02
-2.427051e-02	6.000000e-02	-1.763356e-02
-2.427051e-02	5.500000e-02	-1.763356e-02
-2.427051e-02	5.000000e-02	-1.763356e-02
-2.427051e-02	4.500000e-02	-1.763356e-02
-2.427051e-02	4.000000e-02	-1.763356e-02
-2.427051e-02	3.500000e-02	-1.763356e-02
-2.427051e-02	3.000000e-02	-1.763356e-02
-2.427051e-02	2.500000e-02	-1.763356e-02
-2.427051e-02	2.000000e-02	-1.763356e-02
-2.427051e-02	1.500000e-02	-1.763356e-02
-2.427051e-02	1.000000e-02	-1.763356e-02
-2.427051e-02	5.000000e-03	-1.763356e-02
-2.121320e-02	2.900000e-01	-2.121320e-02
-2.121320e-02	2.850000e-01	-2.121320e-02
-2.121320e-02	2.800000e-01	-2.121320e-02
-2.121320e-02	2.750000e-01	-2.121320e-02
-2.121320e-02	2.700000e-01	-2.121320e-02
-2.121320e-02	2.650000e-01	-2.121320e-02
-2.121320e-02	2.600000e-01	-2.121320e-02
-2.121320e-02	2.550000e-01	-2.121320e-02
-2.121320e-02	2.500000e-01	-2.121320e-02
-2.121320e-02	2.450000e-01	-2.121320e-02
-2.121320e-02	2.400000e-01	-2.121320e-02
-2.121320e-02	2.350000e-01	-2.121320e-02
-2.121320e-02	2.300000e-01	-2.121320e-02
-2.121320e-02	2.250000e-01	-2.121320e-02
-2.121320e-02	2.200000e-01	-2.121320e-02
-2.121320e-02	2.150000e-01	-2.121320e-02
-2.121320e-02	2.100000e-01	-2.121320e-02
-2.121320e-02	2.050000e-01	-2.121320e-02
-2.121320e-02	2.000000e-01	-2.121320e-02
-2.121320e-02	1.950000e-01	-2.121320e-02
-2.121320e-02	1.900000e-01	-2.121320e-02
-2.121320e-02	1.850000e-01	-2.121320e-02
-2.121320e-02	1.800000e-01	-2.121320e-02
-2.121320e-02	1.750000e-01	-2.121320e-02
-2.121320e-02	1.700000e-01	-2.121320e-02
-2.121320e-02	1.650000e-01	-2.121320e-02
-2.121320e-02	1.600000e-01	-2.121320e-02
-2.121320e-02	1.550000e-01	-2.121320e-02
-2.121320e-02	1.500000e-01	-2.121320e-02
-2.121320e-02	1.450000e-01	-2.121320e-02
-2.121320e-02	1.400000e-01	-2.121320e-02
-2.121320e-02	1.350000e-01	-2.121320e-02
-2.121320e-02	1.300000e-01	-2.121320e-02
-2.121320e-02	1.250000e-01	-2.121320e-02
-2.121320e-02	1.200000e-01	-2.121320e-02
-2.121320e-02	1.150000e-01	-2.121320e-02
-2.121320e-02	1.100000e-01	-2.121320e-02
-2.121320e-02	1.050000e-01	-2.121320e-02
-2.121320e-02	1.000000e-01	-2.121320e-02
-2.121320e-02	9.500000e-02	-2.121320e-02
-2.121320e-02	9.000000e-02	-2.121320e-02
-2.121320e-02	8.500000e-02	-2.121320e-02
-2.121320e-02	8.000000e-02	-2.121320e-02
-2.121320e-02	7.500000e-02	-2.121320e-02
-2.121320e-02	7.000000e-02	-2.121320e-02
-2.121320e-02	6.500000e-02	-2.121320e-02
-2.121320e-02	6.000000e-02	-2.121320e-02
-2.121320e-02	5.500000e-02	-2.121320e-02
-2.121320e-02	5.000000e-02	-2.121320e-02
-2.121320e-02	4.500000e-02	-2.121320e-02
-2.121320e-02	4.000000e-02	-2.121320e-02
-2.121320e-02	3.500000e-02	-2.121320e-02
-2.121320e-02	3.000000e-02	-2.121320e-02
-2.121320e-02	2.500000e-02	-2.121320e-02
-2.121320e-02	2.000000e-02	-2.121320e-02
-2.121320e-02	1.500000e-02	-2.121320e-02
-2.121320e-02	1.000000e-02	-2.121320e-02
-2.121320e-02	5.000000e-03	-2.121320e-02
-1.763356e-02	2.900000e-01	-2.427051e-02
-1.763356e-02	2.850000e-01	-2.427051e-02
-1.763356e-02	2.800000e-01	-2.427051e-02
-1.763356e-02	2.750000e-01	-2.427051e-02
-1.763356e-02	2.700000e-01	-2.427051e-02
-1.763356e-02	2.650000e-01	-2.427051e-02
-1.763356e-02	2.600000e-01	-2.427051e-02
-1.763356e-02	2.550000e-01	-2.427051e-02
-1.763356e-02	2.500000e-01	-2.427051e-02
-1.763356e-02	2.450000e-01	-2.427051e-02
-1.763356e-02	2.400000e-01	-2.427051e-02
-1.763356e-02	2.350000e-01	-2.427051e-02
-1.763356e-02	2.300000e-01	-2.427051e-02
-1.763356e-02	2.250000e-01	-2.427051e-02
-1.763356e-02	2.200000e-01	-2.427051e-02
-1.763356e-02	2.150000e-01	-2.427051e-02
-1.763356e-02	2.100000e-01	-2.427051e-02
-1.763356e-02	2.050000e-01	-2.427051e-02
-1.763356e-02	2.000000e-01	-2.427051e-02
-1.763356e-02	1.950000e-01	-2.427051e-02
-1.763356e-02	1.900000e-01	-2.427051e-02
-1.763356e-02	1.850000e-01	-2.427051e-02
-1.763356e-02	1.800000e-01	-2.427051e-02
-1.763356e-02	1.750000e-01	-2.427051e-02
-1.763356e-02	1.700000e-01	-2.427051e-02
-1.763356e-02	1.650000e-01	-2.427051e-02
-1.763356e-02	1.600000e-01	-2.427051e-02
-1.763356e-02	1.550000e-01	-2.427051e-02
-1.763356e-02	1.500000e-01	-2.427051e-02
-1.763356e-02	1.450000e-01	-2.427051e-02
-1.763356e-02	1.400000e-01	-2.427051e-02
-1.763356e-02	1.350000e-01	-2.427051e-02
-1.763356e-02	1.300000e-01	-2.427051e-02
-1.763356e-02	1.250000e-01	-2.427051e-02
-1.763356e-02	1.200000e-01	-2.427051e-02
-1.763356e-02	1.150000e-01	-2.427051e-02
-1.763356e-02	1.100000e-01	-2.427051e-02
-1.763356e-02	1.050000e-01	-2.427051e-02
-1.763356e-02	1.000000e-01	-2.427051e-02
-1.763356e-02	9.500000e-02	-2.427051e-02
-1.763356e-02	9.000000e-02	-2.427051e-02
-1.763356e-02	8.500000e-02	-2.427051e-02
-1.763356e-02	8.000000e-02	-2.427051e-02
-1.763356e-02	7.500000e-02	-2.427051e-02
-1.763356e-02	7.000000e-02	-2.427051e-02
-1.763356e-02	6.500000e-02	-2.427051e-02
-1.763356e-02	6.000000e-02	-2.427051e-02
-1.763356e-02	5.500000e-02	-2.427051e-02
-1.763356e-02	5.000000e-02	-2.427051e-02
-1.763356e-02	4.500000e-02	-2.427051e-02
-1.763356e-02	4.000000e-02	-2.427051e-02
-1.763356e-02	3.500000e-02	-2.427051e-02
-1.763356e-02	3.000000e-02	-2.427051e-02
-1.763356e-02	2.500000e-02	-2.427051e-02
-1.763356e-02	2.000000e-02	-2.427051e-02
-1.763356e-02	1.500000e-02	-2.427051e-02
-1.763356e-02	1.000000e-02	-2.427051e-02
-1.763356e-02	5.000000e-03	-2.427051e-02
-1.361971e-02	2.900000e-01	-2.673020e-02
-1.361971e-02	2.850000e-01	-2.673020e-02
-1.361971e-02	2.800000e-01	-2.673020e-02
-1.361971e-02	2.750000e-01	-2.673020e-02
-1.361971e-02	2.700000e-01	-2.673020e-02
-1.361971e-02	2.650000e-01	-2.673020e-02
-1.361971e-02	2.600000e-01	-2.673020e-02
-1.361971e-02	2.550000e-01	-2.673020e-02
-1.361971e-02	2.500000e-01	-2.673020e-02
-1.361971e-02	2.450000e-01	-2.673020e-02
-1.361971e-02	2.400000e-01	-2.673020e-02
-1.361971e-02	2.350000e-01	-2.673020e-02
-1.361971e-02	2.300000e-01	-2.673020e-02
-1.361971e-02	2.250000e-01	-2.673020e-02
-1.361971e-02	2.200000e-01	-2.673020e-02
-1.361971e-02	2.150000e-01	-2.673020e-02
-1.361971e-02	2.100000e-01	-2.673020e-02
-1.361971e-02	2.050000e-01	-2.673020e-02
-1.361971e-02	2.000000e-01	-2.673020e-02
-1.361971e-02	1.950000e-01	-2.673020e-02
-1.361971e-02	1.900000e-01	-2.673020e-02
-1.361971e-02	1.850000e-01	-2.673020e-02
-1.361971e-02	1.800000e-01	-2.673020e-02
-1.361971e-02	1.750000e-01	-2.673020e-02
-1.361971e-02	1.700000e-01	-2.673020e-02
-1.361971e-02	1.650000e-01	-2.673020e-02
-1.361971e-02	1.600000e-01	-2.673020e-02
-1.361971e-02	1.550000e-01	-2.673020e-02
-1.361971e-02	1.500000e-01	-2.673020e-02
-1.361971e-02	1.450000e-01	-2.673020e-02
-1.361971e-02	1.400000e-01	-2.673020e-02
-1.361971e-02	1.350000e-01	-2.673020e-02
-1.361971e-02	1.300000e-01	-2.673020e-02
-1.361971e-02	1.250000e-01	-2.673020e-02
-1.361971e-02	1.200000e-01	-2.673020e-02
-1.361971e-02	1.150000e-01	-2.673020e-02
-1.361971e-02	1.100000e-01	-2.673020e-02
-1.361971e-02	1.050000e-01	-2.673020e-02
-1.361971e-02	1.000000e-01	-2.673020e-02
-1.361971e-02	9.500000e-02	-2.673020e-02
-1.361971e-02	9.000000e-02	-2.673020e-02
-1.361971e-02	8.500000e-02	-2.673020e-02
-1.361971e-02	8.000000e-02	-2.673020e-02
-1.361971e-02	7.500000e-02	-2.673020e-02
-1.361971e-02	7.000000e-02	-2.673020e-02
-1.361971e-02	6.500000e-02	-2.673020e-02
-1.361971e-02	6.000000e-02	-2.673020e-02
-1.361971e-02	5.500000e-02	-2.673020e-02
-1.361971e-02	5.000000e-02	-2.673020e-02
-1.361971e-02	4.500000e-02	-2.673020e-02
-1.361971e-02	4.000000e-02	-2.673020e-02
-1.361971e-02	3.500000e-02	-2.673020e-02
-1.361971e-02	3.000000e-02	-2.673020e-02
-1.361971e-02	2.500000e-02	-2.673020e-02
-1.361971e-02	2.000000e-02	-2.673020e-02
-1.361971e-02	1.500000e-02	-2.673020e-02
-1.361971e-02	1.000000e-02	-2.673020e-02
-1.361971e-02	5.000000e-03	-2.673020e-02
-9.270510e-03	2.900000e-01	-2.853170e-02
-9.270510e-03	2.850000e-01	-2.853170e-02
-9.270510e-03	2.800000e-01	-2.853170e-02
-9.270510e-03	2.750000e-01	-2.853170e-02
-9.270510e-03	2.700000e-01	-2.853170e-02
-9.270510e-03	2.650000e-01	-2.853170e-02
-9.270510e-03	2.600000e-01	-2.853170e-02
-9.270510e-03	2.550000e-01	-2.853170e-02
-9.270510e-03	2.500000e-01	-2.853170e-02
-9.270510e-03	2.450000e-01	-2.853170e-02
-9.270510e-03	2.400000e-01	-2.853170e-02
-9.270510e-03	2.350000e-01	-2.853170e-02
-9.270510e-03	2.300000e-01	-2.853170e-02
-9.270510e-03	2.250000e-01	-2.853170e-02
-9.270510e-03	2.200000e-01	-2.853170e-02
-9.270510e-03	2.150000e-01	-2.853170e-02
-9.270510e-03	2.100000e-01	-2.853170e-02
-9.270510e-03	2.050000e-01	-2.853170e-02
-9.270510e-03	2.000000e-01	-2.853170e-02
-9.270510e-03	1.950000e-01	-2.853170e-02
-9.270510e-03	1.900000e-01	-2.853170e-02
-9.270510e-03	1.850000e-01	-2.853170e-02
-9.270510e-03	1.800000e-01	-2.853170e-02
-9.270510e-03	1.750000e-01	-2.853170e-02
-9.270510e-03	1.700000e-01	-2.853170e-02
-9.270510e-03	1.650000e-01	-2.853170e-02
-9.270510e-03	1.600000e-01	-2.853170e-02
-9.270510e-03	1.550000e-01	-2.853170e-02
-9.270510e-03	1.500000e-01	-2.853170e-02
-9.270510e-03	1.450000e-01	-2.853170e-02
-9.270510e-03	1.400000e-01	-2.853170e-02
-9.270510e-03	1.350000e-01	-2.853170e-02
-9.270510e-03	1.300000e-01	-2.853170e-02
-9.270510e-03	1.250000e-01	-2.853170e-02
-9.270510e-03	1.200000e-01	-2.853170e-02
-9.270510e-03	1.150000e-01	-2.853170e-02
-9.270510e-03	1.100000e-01	-2.853170e-02
-9.270510e-03	1.050000e-01	-2.853170e-02
-9.270510e-03	1.000000e-01	-2.853170e-02
-9.270510e-03	9.500000e-02	-2.853170e-02
-9.270510e-03	9.000000e-02	-2.853170e-02
-9.270510e-03	8.500000e-02	-2.853170e-02
-9.270510e-03	8.000000e-02	-2.853170e-02
-9.270510e-03	7.500000e-02	-2.853170e-02
-9.270510e-03	7.000000e-02	-2.853170e-02
-9.270510e-03	6.500000e-02	-2.853170e-02
-9.270510e-03	6.000000e-02	-2.853170e-02
-9.270510e-03	5.500000e-02	-2.853170e-02
-9.270510e-03	5.000000e-02	-2.853170e-02
-9.270510e-03	4.500000e-02	-2.853170e-02
-9.270510e-03	4.000000e-02	-2.853170e-02
-9.270510e-03	3.500000e-02	-2.853170e-02
-9.270510e-03	3.000000e-02	-2.853170e-02
-9.270510e-03	2.500000e-02	-2.853170e-02
-9.270510e-03	2.000000e-02	-2.853170e-02
-9.270510e-03	1.500000e-02	-2.853170e-02
-9.270510e-03	1.000000e-02	-2.853170e-02
-9.270510e-03	5.000000e-03	-2.853170e-02
-4.693034e-03	2.900000e-01	-2.963065e-02
-4.693034e-03	2.850000e-01	-2.963065e-02
-4.693034e-03	2.800000e-01	-2.963065e-02
-4.693034e-03	2.750000e-01	-2.963065e-02
-4.693034e-03	2.700000e-01	-2.963065e-02
-4.693034e-03	2.650000e-01	-2.963065e-02
-4.693034e-03	2.600000e-01	-2.963065e-02
-4.693034e-03	2.550000e-01	-2.963065e-02
-4.693034e-03	2.500000e-01	-2.963065e-02
-4.693034e-03	2.450000e-01	-2.963065e-02
-4.693034e-03	2.400000e-01	-2.963065e-02
-4.693034e-03	2.350000e-01	-2.963065e-02
-4.693034e-03	2.300000e-01	-2.963065e-02
-4.693034e-03	2.250000e-01	-2.963065e-02
-4.693034e-03	2.200000e-01	-2.963065e-02
-4.693034e-03	2.150000e-01	-2.963065e-02
-4.693034e-03	2.100000e-01	-2.963065e-02
-4.693034e-03	2.050000e-01	-2.963065e-02
-4.693034e-03	2.000000e-01	-2.963065e-02
-4.693034e-03	1.950000e-01	-2.963065e-02
-4.693034e-03	1.900000e-01	-2.963065e-02
-4.693034e-03	1.850000e-01	-2.963065e-02
-4.693034e-03	1.800000e-01	-2.963065e-02
-4.693034e-03	1.750000e-01	-2.963065e-02
-4.693034e-03	1.700000e-01	-2.963065e-02
-4.693034e-03	1.650000e-01	-2.963065e-02
-4.693034e-03	1.600000e-01	-2.963065e-02
-4.693034e-03	1.550000e-01	-2.963065e-02
-4.693034e-03	1.500000e-01	-2.963065e-02
-4.693034e-03	1.450000e-01	-2.963065e-02
-4.693034e-03	1.400000e-01	-2.963065e-02
-4.693034e-03	1.350000e-01	-2.963065e-02
-4.693034e-03	1.300000e-01	-2.963065e-02
-4.693034e-03	1.250000e-01	-2.963065e-02
-4.693034e-03	1.200000e-01	-2.963065e-02
-4.693034e-03	1.150000e-01	-2.963065e-02
-4.693034e-03	1.100000e-01	-2.963065e-02
-4.693034e-03	1.050000e-01	-2.963065e-02
-4.693034e-03	1.000000e-01	-2.963065e-02
-4.693034e-03	9.500000e-02	-2.963065e-02
-4.693034e-03	9.000000e-02	-2.963065e-02
-4.693034e-03	8.500000e-02	-2.963065e-02
-4.693034e-03	8.000000e-02	-2.963065e-02
-4.693034e-03	7.500000e-02	-2.963065e-02
-4.693034e-03	7.000000e-02	-2.963065e-02
-4.693034e-03	6.500000e-02	-2.963065e-02
-4.693034e-03	6.000000e-02	-2.963065e-02
-4.693034e-03	5.500000e-02	-2.963065e-02
-4.693034e-03	5.000000e-02	-2.963065e-02
-4.693034e-03	4.500000e-02	-2.963065e-02
-4.693034e-03	4.000000e-02	-2.963065e-02
-4.693034e-03	3.500000e-02	-2.963065e-02
-4.693034e-03	3.000000e-02	-2.963065e-02
-4.693034e-03	2.500000e-02	-2.963065e-02
-4.693034e-03	2.000000e-02	-2.963065e-02
-4.693034e-03	1.500000e-02	-2.963065e-02
-4.693034e-03	1.000000e-02	-2.963065e-02
-4.693034e-03	5.000000e-03	-2.963065e-02
-3.000000e-02	3.050000e-01	0.000000e+00
-3.000000e-02	3.000000e-01	0.000000e+00
-4.693034e-03	3.050000e-01	-2.963065e-02
-9.270510e-03	3.050000e-01	-2.853170e-02
-1.361971e-02	3.050000e-01	-2.673020e-02
-1.763356e-02	3.050000e-01	-2.427051e-02
-2.121320e-02	3.050000e-01	-2.121320e-02
-2.427051e-02	3.050000e-01	-1.763356e-02
-2.673020e-02	3.050000e-01	-1.361971e-02
-2.853170e-02	3.050000e-01	-9.270510e-03
-2.963065e-02	3.050000e-01	-4.693034e-03
-2.963065e-02	3.000000e-01	-4.693034e-03
-2.853170e-02	3.000000e-01	-9.270510e-03
-2.673020e-02	3.000000e-01	-1.361971e-02
-2.427051e-02	3.000000e-01	-1.763356e-02
-2.121320e-02	3.000000e-01	-2.121320e-02
-1.763356e-02	3.000000e-01	-2.427051e-02
-1.361971e-02	3.000000e-01	-2.673020e-02
-9.270510e-03	3.000000e-01	-2.853170e-02
-4.693034e-03	3.000000e-01	-2.963065e-02
-3.000000e-02	6.000000e-01	0.000000e+00
-3.000000e-02	3.100000e-01	0.000000e+00
-3.000000e-02	3.150000e-01	0.000000e+00
-3.000000e-02	3.200000e-01	0.000000e+00
-3.000000e-02	3.250000e-01	0.000000e+00
-3.000000e-02	3.300000e-01	0.000000e+00
-3.000000e-02	3.350000e-01	0.000000e+00
-3.000000e-02	3.400000e-01	0.000000e+00
-3.000000e-02	3.450000e-01	0.000000e+00
-3.000000e-02	3.500000e-01	0.000000e+00
-3.000000e-02	3.550000e-01	0.000000e+00
-3.000000e-02	3.600000e-01	0.000000e+00
-3.000000e-02	3.650000e-01	0.000000e+00
-3.000000e-02	3.700000e-01	0.000000e+00
-3.000000e-02	3.750000e-01	0.000000e+00
-3.000000e-02	3.800000e-01	0.000000e+00
-3.000000e-02	3.850000e-01	0.000000e+00
-3.000000e-02	3.900000e-01	0.000000e+00
-3.000000e-02	3.950000e-01	0.000000e+00
-3.000000e-02	4.000000e-01	0.000000e+00
-3.000000e-02	4.050000e-01	0.000000e+00
-3.000000e-02	4.100000e-01	0.000000e+00
-3.000000e-02	4.150000e-01	0.000000e+00
-3.000000e-02	4.200000e-01	0.000000e+00
-3.000000e-02	4.250000e-01	0.000000e+00
-3.000000e-02	4.300000e-01	0.000000e+00
-3.000000e-02	4.350000e-01	0.000000e+00
-3.000000e-02	4.400000e-01	0.000000e+00
-3.000000e-02	4.450000e-01	0.000000e+00
-3.000000e-02	4.500000e-01	0.000000e+00
-3.000000e-02	4.550000e-01	0.000000e+00
-3.000000e-02	4.600000e-01	0.000000e+00
-3.000000e-02	4.650000e-01	0.000000e+00
-3.000000e-02	4.700000e-01	0.000000e+00
-3.000000e-02	4.750000e-01	0.000000e+00
-3.000000e-02	4.800000e-01	0.000000e+00
-3.000000e-02	4.850000e-01	0.000000e+00
-3.000000e-02	4.900000e-01	0.000000e+00
-3.000000e-02	4.950000e-01	0.000000e+00
-3.000000e-02	5.000000e-01	0.000000e+00
-3.000000e-02	5.050000e-01	0.000000e+00
-3.000000e-02	5.100000e-01	0.000000e+00
-3.000000e-02	5.150000e-01	0.000000e+00
-3.000000e-02	5.200000e-01	0.000000e+00
-3.000000e-02	5.250000e-01	0.000000e+00
-3.000000e-02	5.300000e-01	0.000000e+00
-3.000000e-02	5.350000e-01	0.000000e+00
-3.000000e-02	5.400000e-01	0.000000e+00
-3.000000e-02	5.450000e-01	0.000000e+00
-3.000000e-02	5.500000e-01	0.000000e+00
-3.000000e-02	5.550000e-01	0.000000e+00
-3.000000e-02	5.600000e-01	0.000000e+00
-3.000000e-02	5.650000e-01	0.000000e+00
-3.000000e-02	5.700000e-01	0.000000e+00
-3.000000e-02	5.750000e-01	0.000000e+00
-3.000000e-02	5.800000e-01	0.000000e+00
-3.000000e-02	5.850000e-01	0.000000e+00
-3.000000e-02	5.900000e-01	0.000000e+00
-3.000000e-02	5.950000e-01	0.000000e+00
-4.693034e-03	6.000000e-01	-2.963065e-02
-9.270510e-03	6.000000e-01	-2.853170e-02
-1.361971e-02	6.000000e-01	-2.673020e-02
-1.763356e-02	6.000000e-01	-2.427051e-02
-2.121320e-02	6.000000e-01	-2.121320e-02
-2.427051e-02	6.000000e-01	-1.763356e-02
-2.673020e-02	6.000000e-01	-1.361971e-02
-2.853170e-02	6.000000e-01	-9.270510e-03
-2.963065e-02	6.000000e-01	-4.693034e-03
-2.963065e-02	5.950000e-01	-4.693034e-03
-2.963065e-02	5.900000e-01	-4.693034e-03
-2.963065e-02	5.850000e-01	-4.693034e-03
-2.963065e-02	5.800000e-01	-4.693034e-03
-2.963065e-02	5.750000e-01	-4.693034e-03
-2.963065e-02	5.700000e-01	-4.693034e-03
-2.963065e-02	5.650000e-01	-4.693034e-03
-2.963065e-02	5.600000e-01	-4.693034e-03
-2.963065e-02	5.550000e-01	-4.693034e-03
-2.963065e-02	5.500000e-01	-4.693034e-03
-2.963065e-02	5.450000e-01	-4.693034e-03
-2.963065e-02	5.400000e-01	-4.693034e-03
-2.963065e-02	5.350000e-01	-4.693034e-03
-2.963065e-02	5.300000e-01	-4.693034e-03
-2.963065e-02	5.250000e-01	-4.693034e-03
-2.963065e-02	5.200000e-01	-4.693034e-03
-2.963065e-02	5.150000e-01	-4.693034e-03
-2.963065e-02	5.100000e-01	-4.693034e-03
-2.963065e-02	5.050000e-01	-4.693034e-03
-2.963065e-02	5.000000e-01	-4.693034e-03
-2.963065e-02	4.950000e-01	-4.693034e-03
-2.963065e-02	4.900000e-01	-4.693034e-03
-2.963065e-02	4.850000e-01	-4.693034e-03
-2.963065e-02	4.800000e-01	-4.693034e-03
-2.963065e-02	4.750000e-01	-4.693034e-03
-2.963065e-02	4.700000e-01	-4.693034e-03
-2.963065e-02	4.650000e-01	-4.693034e-03
-2.963065e-02	4.600000e-01	-4.693034e-03
-2.963065e-02	4.550000e-01	-4.693034e-03
-2.963065e-02	4.500000e-01	-4.693034e-03
-2.963065e-02	4.450000e-01	-4.693034e-03
-2.963065e-02	4.400000e-01	-4.693034e-03
-2.963065e-02	4.350000e-01	-4.693034e-03
-2.963065e-02	4.300000e-01	-4.693034e-03
-2.963065e-02	4.250000e-01	-4.693034e-03
-2.963065e-02	4.200000e-01	-4.693034e-03
-2.963065e-02	4.150000e-01	-4.693034e-03
-2.963065e-02	4.100000e-01	-4.693034e-03
-2.963065e-02	4.050000e-01	-4.693034e-03
-2.963065e-02	4.000000e-01	-4.693034e-03
-2.963065e-02	3.950000e-01	-4.693034e-03
-2.963065e-02	3.900000e-01	-4.693034e-03
-2.963065e-02	3.850000e-01	-4.693034e-03
-2.963065e-02	3.800000e-01	-4.693034e-03
-2.963065e-02	3.750000e-01	-4.693034e-03
-2.963065e-02	3.700000e-01	-4.693034e-03
-2.963065e-02	3.650000e-01	-4.693034e-03
-2.963065e-02	3.600000e-01	-4.693034e-03
-2.963065e-02	3.550000e-01	-4.693034e-03
-2.963065e-02	3.500000e-01	-4.693034e-03
-2.963065e-02	3.450000e-01	-4.693034e-03
-2.963065e-02	3.400000e-01	-4.693034e-03
-2.963065e-02	3.350000e-01	-4.693034e-03
-2.963065e-02	3.300000e-01	-4.693034e-03
-2.963065e-02	3.250000e-01	-4.693034e-03
-2.963065e-02	3.200000e-01	-4.693034e-03
-2.963065e-02	3.150000e-01	-4.693034e-03
-2.963065e-02	3.100000e-01	-4.693034e-03
-2.853170e-02	5.950000e-01	-9.270510e-03
-2.853170e-02	5.900000e-01	-9.270510e-03
-2.853170e-02	5.850000e-01	-9.270510e-03
-2.853170e-02	5.800000e-01	-9.270510e-03
-2.853170e-02	5.750000e-01	-9.270510e-03
-2.853170e-02	5.700000e-01	-9.270510e-03
-2.853170e-02	5.650000e-01	-9.270510e-03
-2.853170e-02	5.600000e-01	-9.270510e-03
-2.853170e-02	5.550000e-01	-9.270510e-03
-2.853170e-02	5.500000e-01	-9.270510e-03
-2.853170e-02	5.450000e-01	-9.270510e-03
-2.853170e-02	5.400000e-01	-9.270510e-03
-2.853170e-02	5.350000e-01	-9.270510e-03
-2.853170e-02	5.300000e-01	-9.270510e-03
-2.853170e-02	5.250000e-01	-9.270510e-03
-2.853170e-02	5.200000e-01	-9.270510e-03
-2.853170e-02	5.150000e-01	-9.270510e-03
-2.853170e-02	5.100000e-01	-9.270510e-03
-2.853170e-02	5.050000e-01	-9.270510e-03
-2.853170e-02	5.000000e-01	-9.270510e-03
-2.853170e-02	4.950000e-01	-9.270510e-03
-2.853170e-02	4.900000e-01	-9.270510e-03
-2.853170e-02	4.850000e-01	-9.270510e-03
-2.853170e-02	4.800000e-01	-9.270510e-03
-2.853170e-02	4.750000e-01	-9.270510e-03
-2.853170e-02	4.700000e-01	-9.270510e-03
-2.853170e-02	4.650000e-01	-9.270510e-03
-2.853170e-02	4.600000e-01	-9.270510e-03
-2.853170e-02	4.550000e-01	-9.270510e-03
-2.853170e-02	4.500000e-01	-9.270510e-03
-2.853170e-02	4.450000e-01	-9.270510e-03
-2.853170e-02	4.400000e-01	-9.270510e-03
-2.853170e-02	4.350000e-01	-9.270510e-03
-2.853170e-02	4.300000e-01	-9.270510e-03
-2.853170e-02	4.250000e-01	-9.270510e-03
-2.853170e-02	4.200000e-01	-9.270510e-03
-2.853170e-02	4.150000e-01	-9.270510e-03
-2.853170e-02	4.100000e-01	-9.270510e-03
-2.853170e-02	4.050000e-01	-9.270510e-03
-2.853170e-02	4.000000e-01	-9.270510e-03
-2.853170e-02	3.950000e-01	-9.270510e-03
-2.853170e-02	3.900000e-01	-9.270510e-03
-2.853170e-02	3.850000e-01	-9.270510e-03
-2.853170e-02	3.800000e-01	-9.270510e-03
-2.853170e-02	3.750000e-01	-9.270510e-03
-2.853170e-02	3.700000e-01	-9.270510e-03
-2.853170e-02	3.650000e-01	-9.270510e-03
-2.853170e-02	3.600000e-01	-9.270510e-03
-2.853170e-02	3.550000e-01	-9.270510e-03
-2.853170e-02	3.500000e-01	-9.270510e-03
-2.853170e-02	3.450000e-01	-9.270510e-03
-2.853170e-02	3.400000e-01	-9.270510e-03
-2.853170e-02	3.350000e-01	-9.270510e-03
-2.853170e-02	3.300000e-01	-9.270510e-03
-2.853170e-02	3.250000e-01	-9.270510e-03
-2.853170e-02	3.200000e-01	-9.270510e-03
-2.853170e-02	3.150000e-01	-9.270510e-03
-2.853170e-02	3.100000e-01	-9.270510e-03
-2.673020e-02	5.950000e-01	-1.361971e-02
-2.673020e-02	5.900000e-01	-1.361971e-02
-2.673020e-02	5.850000e-01	-1.361971e-02
-2.673020e-02	5.800000e-01	-1.361971e-02
-2.673020e-02	5.750000e-01	-1.361971e-02
-2.673020e-02	5.700000e-01	-1.361971e-02
-2.673020e-02	5.650000e-01	-1.361971e-02
-2.673020e-02	5.600000e-01	-1.361971e-02
-2.673020e-02	5.550000e-01	-1.361971e-02
-2.673020e-02	5.500000e-01	-1.361971e-02
-2.673020e-02	5.450000e-01	-1.361971e-02
-2.673020e-02	5.400000e-01	-1.361971e-02
-2.673020e-02	5.350000e-01	-1.361971e-02
-2.673020e-02	5.300000e-01	-1.361971e-02
-2.673020e-02	5.250000e-01	-1.361971e-02
-2.673020e-02	5.200000e-01	-1.361971e-02
-2.673020e-02	5.150000e-01	-1.361971e-02
-2.673020e-02	5.100000e-01	-1.361971e-02
-2.673020e-02	5.050000e-01	-1.361971e-02
-2.673020e-02	5.000000e-01	-1.361971e-02
-2.673020e-02	4.950000e-01	-1.361971e-02
-2.673020e-02	4.900000e-01	-1.361971e-02
-2.673020e-02	4.850000e-01	-1.361971e-02
-2.673020e-02	4.800000e-01	-1.361971e-02
-2.673020e-02	4.750000e-01	-1.361971e-02
-2.673020e-02	4.700000e-01	-1.361971e-02
-2.673020e-02	4.650000e-01	-1.361971e-02
-2.673020e-02	4.600000e-01	-1.361971e-02
-2.673020e-02	4.550000e-01	-1.361971e-02
-2.673020e-02	4.500000e-01	-1.361971e-02
-2.673020e-02	4.450000e-01	-1.361971e-02
-2.673020e-02	4.400000e-01	-1.361971e-02
-2.673020e-02	4.350000e-01	-1.361971e-02
-2.673020e-02	4.300000e-01	-1.361971e-02
-2.673020e-02	4.250000e-01	-1.361971e-02
-2.673020e-02	4.200000e-01	-1.361971e-02
-2.673020e-02	4.150000e-01	-1.361971e-02
-2.673020e-02	4.100000e-01	-1.361971e-02
-2.673020e-02	4.050000e-01	-1.361971e-02
-2.673020e-02	4.000000e-01	-1.361971e-02
-2.673020e-02	3.950000e-01	-1.361971e-02
-2.673020e-02	3.900000e-01	-1.361971e-02
-2.673020e-02	3.850000e-01	-1.361971e-02
-2.673020e-02	3.800000e-01	-1.361971e-02
-2.673020e-02	3.750000e-01	-1.361971e-02
-2.673020e-02	3.700000e-01	-1.361971e-02
-2.673020e-02	3.650000e-01	-1.361971e-02
-2.673020e-02	3.600000e-01	-1.361971e-02
-2.673020e-02	3.550000e-01	-1.361971e-02
-2.673020e-02	3.500000e-01	-1.361971e-02
-2.673020e-02	3.450000e-01	-1.361971e-02
-2.673020e-02	3.400000e-01	-1.361971e-02
-2.673020e-02	3.350000e-01	-1.361971e-02
-2.673020e-02	3.300000e-01	-1.361971e-02
-2.673020e-02	3.250000e-01	-1.361971e-02
-2.673020e-02	3.200000e-01	-1.361971e-02
-2.673020e-02	3.150000e-01	-1.361971e-02
-2.673020e-02	3.100000e-01	-1.361971e-02
-2.427051e-02	5.950000e-01	-1.763356e-02
-2.427051e-02	5.900000e-01	-1.763356e-02
-2.427051e-02	5.850000e-01	-1.763356e-02
-2.427051e-02	5.800000e-01	-1.763356e-02
-2.427051e-02	5.750000e-01	-1.763356e-02
-2.427051e-02	5.700000e-01	-1.763356e-02
-2.427051e-02	5.650000e-01	-1.763356e-02
-2.427051e-02	5.600000e-01	-1.763356e-02
-2.427051e-02	5.550000e-01	-1.763356e-02
-2.427051e-02	5.500000e-01	-1.763356e-02
-2.427051e-02	5.450000e-01	-1.763356e-02
-2.427051e-02	5.400000e-01	-1.763356e-02
-2.427051e-02	5.350000e-01	-1.763356e-02
-2.427051e-02	5.300000e-01	-1.763356e-02
-2.427051e-02	5.250000e-01	-1.763356e-02
-2.427051e-02	5.200000e-01	-1.763356e-02
-2.427051e-02	5.150000e-01	-1.763356e-02
-2.427051e-02	5.100000e-01	-1.763356e-02
-2.427051e-02	5.050000e-01	-1.763356e-02
-2.427051e-02	5.000000e-01	-1.763356e-02
-2.427051e-02	4.950000e-01	-1.763356e-02
-2.427051e-02	4.900000e-01	-1.763356e-02
-2.427051e-02	4.850000e-01	-1.763356e-02
-2.427051e-02	4.800000e-01	-1.763356e-02
-2.427051e-02	4.750000e-01	-1.763356e-02
-2.427051e-02	4.700000e-01	-1.763356e-02
-2.427051e-02	4.650000e-01	-1.763356e-02
-2.427051e-02	4.600000e-01	-1.763356e-02
-2.427051e-02	4.550000e-01	-1.763356e-02
-2.427051e-02	4.500000e-01	-1.763356e-02
-2.427051e-02	4.450000e-01	-1.763356e-02
-2.427051e-02	4.400000e-01	-1.763356e-02
-2.427051e-02	4.350000e-01	-1.763356e-02
-2.427051e-02	4.300000e-01	-1.763356e-02
-2.427051e-02	4.250000e-01	-1.763356e-02
-2.427051e-02	4.200000e-01	-1.763356e-02
-2.427051e-02	4.150000e-01	-1.763356e-02
-2.427051e-02	4.100000e-01	-1.763356e-02
-2.427051e-02	4.050000e-01	-1.763356e-02
-2.427051e-02	4.000000e-01	-1.763356e-02
-2.427051e-02	3.950000e-01	-1.763356e-02
-2.427051e-02	3.900000e-01	-1.763356e-02
-2.427051e-02	3.850000e-01	-1.763356e-02
-2.427051e-02	3.800000e-01	-1.763356e-02
-2.427051e-02	3.750000e-01	-1.763356e-02
-2.427051e-02	3.700000e-01	-1.763356e-02
-2.427051e-02	3.650000e-01	-1.763356e-02
-2.427051e-02	3.600000e-01	-1.763356e-02
-2.427051e-02	3.550000e-01	-1.763356e-02
-2.427051e-02	3.500000e-01	-1.763356e-02
-2.427051e-02	3.450000e-01	-1.763356e-02
-2.427051e-02	3.400000e-01	-1.763356e-02
-2.427051e-02	3.350000e-01	-1.763356e-02
-2.427051e-02	3.300000e-01	-1.763356e-02
-2.427051e-02	3.250000e-01	-1.763356e-02
-2.427051e-02	3.200000e-01	-1.763356e-02
-2.427051e-02	3.150000e-01	-1.763356e-02
-2.427051e-02	3.100000e-01	-1.763356e-02
-2.121320e-02	5.950000e-01	-2.121320e-02
-2.121320e-02	5.900000e-01	-2.121320e-02
-2.121320e-02	5.850000e-01	-2.121320e-02
-2.121320e-02	5.800000e-01	-2.121320e-02
-2.121320e-02	5.750000e-01	-2.121320e-02
-2.121320e-02	5.700000e-01	-2.121320e-02
-2.121320e-02	5.650000e-01	-2.121320e-02
-2.121320e-02	5.600000e-01	-2.121320e-02
-2.121320e-02	5.550000e-01	-2.121320e-02
-2.121320e-02	5.500000e-01	-2.121320e-02
-2.121320e-02	5.450000e-01	-2.121320e-02
-2.121320e-02	5.400000e-01	-2.121320e-02
-2.121320e-02	5.350000e-01	-2.121320e-02
-2.121320e-02	5.300000e-01	-2.121320e-02
-2.121320e-02	5.250000e-01	-2.121320e-02
-2.121320e-02	5.200000e-01	-2.121320e-02
-2.121320e-02	5.150000e-01	-2.121320e-02
-2.121320e-02	5.100000e-01	-2.121320e-02
-2.121320e-02	5.050000e-01	-2.121320e-02
-2.121320e-02	5.000000e-01	-2.121320e-02
-2.121320e-02	4.950000e-01	-2.121320e-02
-2.121320e-02	4.900000e-01	-2.121320e-02
-2.121320e-02	4.850000e-01	-2.121320e-02
-2.121320e-02	4.800000e-01	-2.121320e-02
-2.121320e-02	4.750000e-01	-2.121320e-02
-2.121320e-02	4.700000e-01	-2.121320e-02
-2.121320e-02	4.650000e-01	-2.121320e-02
-2.121320e-02	4.600000e-01	-2.121320e-02
-2.121320e-02	4.550000e-01	-2.121320e-02
-2.121320e-02	4.500000e-01	-2.121320e-02
-2.121320e-02	4.450000e-01	-2.121320e-02
-2.121320e-02	4.400000e-01	-2.121320e-02
-2.121320e-02	4.350000e-01	-2.121320e-02
-2.121320e-02	4.300000e-01	-2.121320e-02
-2.121320e-02	4.250000e-01	-2.121320e-02
-2.121320e-02	4.200000e-01	-2.121320e-02
-2.121320e-02	4.150000e-01	-2.121320e-02
-2.121320e-02	4.100000e-01	-2.121320e-02
-2.121320e-02	4.050000e-01	-2.121320e-02
-2.121320e-02	4.000000e-01	-2.121320e-02
-2.121320e-02	3.950000e-01	-2.121320e-02
-2.121320e-02	3.900000e-01	-2.121320e-02
-2.121320e-02	3.850000e-01	-2.121320e-02
-2.121320e-02	3.800000e-01	-2.121320e-02
-2.121320e-02	3.750000e-01	-2.121320e-02
-2.121320e-02	3.700000e-01	-2.121320e-02
-2.121320e-02	3.650000e-01	-2.121320e-02
-2.121320e-02	3.600000e-01	-2.121320e-02
-2.121320e-02	3.550000e-01	-2.121320e-02
-2.121320e-02	3.500000e-01	-2.121320e-02
-2.121320e-02	3.450000e-01	-2.121320e-02
-2.121320e-02	3.400000e-01	-2.121320e-02
-2.121320e-02	3.350000e-01	-2.121320e-02
-2.121320e-02	3.300000e-01	-2.121320e-02
-2.121320e-02	3.250000e-01	-2.121320e-02
-2.121320e-02	3.200000e-01	-2.121320e-02
-2.121320e-02	3.150000e-01	-2.121320e-02
-2.121320e-02	3.100000e-01	-2.121320e-02
-1.763356e-02	5.950000e-01	-2.427051e-02
-1.763356e-02	5.900000e-01	-2.427051e-02
-1.763356e-02	5.850000e-01	-2.427051e-02
-1.763356e-02	5.800000e-01	-2.427051e-02
-1.763356e-02	5.750000e-01	-2.427051e-02
-1.763356e-02	5.700000e-01	-2.427051e-02
-1.763356e-02	5.650000e-01	-2.427051e-02
-1.763356e-02	5.600000e-01	-2.427051e-02
-1.763356e-02	5.550000e-01	-2.427051e-02
-1.763356e-02	5.500000e-01	-2.427051e-02
-1.763356e-02	5.450000e-01	-2.427051e-02
-1.763356e-02	5.400000e-01	-2.427051e-02
-1.763356e-02	5.350000e-01	-2.427051e-02
-1.763356e-02	5.300000e-01	-2.427051e-02
-1.763356e-02	5.250000e-01	-2.427051e-02
-1.763356e-02	5.200000e-01	-2.427051e-02
-1.763356e-02	5.150000e-01	-2.427051e-02
-1.763356e-02	5.100000e-01	-2.427051e-02
-1.763356e-02	5.050000e-01	-2.427051e-02
-1.763356e-02	5.000000e-01	-2.427051e-02
-1.763356e-02	4.950000e-01	-2.427051e-02
-1.763356e-02	4.900000e-01	-2.427051e-02
-1.763356e-02	4.850000e-01	-2.427051e-02
-1.763356e-02	4.800000e-01	-2.427051e-02
-1.763356e-02	4.750000e-01	-2.427051e-02
-1.763356e-02	4.700000e-01	-2.427051e-02
-1.763356e-02	4.650000e-01	-2.427051e-02
-1.763356e-02	4.600000e-01	-2.427051e-02
-1.763356e-02	4.550000e-01	-2.427051e-02
-1.763356e-02	4.500000e-01	-2.427051e-02
-1.763356e-02	4.450000e-01	-2.427051e-02
-1.763356e-02	4.400000e-01	-2.427051e-02
-1.763356e-02	4.350000e-01	-2.427051e-02
-1.763356e-02	4.300000e-01	-2.427051e-02
-1.763356e-02	4.250000e-01	-2.427051e-02
-1.763356e-02	4.200000e-01	-2.427051e-02
-1.763356e-02	4.150000e-01	-2.427051e-02
-1.763356e-02	4.100000e-01	-2.427051e-02
-1.763356e-02	4.050000e-01	-2.427051e-02
-1.763356e-02	4.000000e-01	-2.427051e-02
-1.763356e-02	3.950000e-01	-2.427051e-02
-1.763356e-02	3.900000e-01	-2.427051e-02
-1.763356e-02	3.850000e-01	-2.427051e-02
-1.763356e-02	3.800000e-01	-2.427051e-02
-1.763356e-02	3.750000e-01	-2.427051e-02
-1.763356e-02	3.700000e-01	-2.427051e-02
-1.763356e-02	3.650000e-01	-2.427051e-02
-1.763356e-02	3.600000e-01	-2.427051e-02
-1.763356e-02	3.550000e-01	-2.427051e-02
-1.763356e-02	3.500000e-01	-2.427051e-02
-1.763356e-02	3.450000e-01	-2.427051e-02
-1.763356e-02	3.400000e-01	-2.427051e-02
-1.763356e-02	3.350000e-01	-2.427051e-02
-1.763356e-02	3.300000e-01	-2.427051e-02
-1.763356e-02	3.250000e-01	-2.427051e-02
-1.763356e-02	3.200000e-01	-2.427051e-02
-1.763356e-02	3.150000e-01	-2.427051e-02
-1.763356e-02	3.100000e-01	-2.427051e-02
-1.361971e-02	5.950000e-01	-2.673020e-02
-1.361971e-02	5.900000e-01	-2.673020e-02
-1.361971e-02	5.850000e-01	-2.673020e-02
-1.361971e-02	5.800000e-01	-2.673020e-02
-1.361971e-02	5.750000e-01	-2.673020e-02
-1.361971e-02	5.700000e-01	-2.673020e-02
-1.361971e-02	5.650000e-01	-2.673020e-02
-1.361971e-02	5.600000e-01	-2.673020e-02
-1.361971e-02	5.550000e-01	-2.673020e-02
-1.361971e-02	5.500000e-01	-2.673020e-02
-1.361971e-02	5.450000e-01	-2.673020e-02
-1.361971e-02	5.400000e-01	-2.673020e-02
-1.361971e-02	5.350000e-01	-2.673020e-02
-1.361971e-02	5.300000e-01	-2.673020e-02
-1.361971e-02	5.250000e-01	-2.673020e-02
-1.361971e-02	5.200000e-01	-2.673020e-02
-1.361971e-02	5.150000e-01	-2.673020e-02
-1.361971e-02	5.100000e-01	-2.673020e-02
-1.361971e-02	5.050000e-01	-2.673020e-02
-1.361971e-02	5.000000e-01	-2.673020e-02
-1.361971e-02	4.950000e-01	-2.673020e-02
-1.361971e-02	4.900000e-01	-2.673020e-02
-1.361971e-02	4.850000e-01	-2.673020e-02
-1.361971e-02	4.800000e-01	-2.673020e-02
-1.361971e-02	4.750000e-01	-2.673020e-02
-1.361971e-02	4.700000e-01	-2.673020e-02
-1.361971e-02	4.650000e-01	-2.673020e-02
-1.361971e-02	4.600000e-01	-2.673020e-02
-1.361971e-02	4.550000e-01	-2.673020e-02
-1.361971e-02	4.500000e-01	-2.673020e-02
-1.361971e-02	4.450000e-01	-2.673020e-02
-1.361971e-02	4.400000e-01	-2.673020e-02
-1.361971e-02	4.350000e-01	-2.673020e-02
-1.361971e-02	4.300000e-01	-2.673020e-02
-1.361971e-02	4.250000e-01	-2.673020e-02
-1.361971e-02	4.200000e-01	-2.673020e-02
-1.361971e-02	4.150000e-01	-2.673020e-02
-1.361971e-02	4.100000e-01	-2.673020e-02
-1.361971e-02	4.050000e-01	-2.673020e-02
-1.361971e-02	4.000000e-01	-2.673020e-02
-1.361971e-02	3.950000e-01	-2.673020e-02
-1.361971e-02	3.900000e-01	-2.673020e-02
-1.361971e-02	3.850000e-01	-2.673020e-02
-1.361971e-02	3.800000e-01	-2.673020e-02
-1.361971e-02	3.750000e-01	-2.673020e-02
-1.361971e-02	3.700000e-01	-2.673020e-02
-1.361971e-02	3.650000e-01	-2.673020e-02
-1.361971e-02	3.600000e-01	-2.673020e-02
-1.361971e-02	3.550000e-01	-2.673020e-02
-1.361971e-02	3.500000e-01	-2.673020e-02
-1.361971e-02	3.450000e-01	-2.673020e-02
-1.361971e-02	3.400000e-01	-2.673020e-02
-1.361971e-02	3.350000e-01	-2.673020e-02
-1.361971e-02	3.300000e-01	-2.673020e-02
-1.361971e-02	3.250000e-01	-2.673020e-02
-1.361971e-02	3.200000e-01	-2.673020e-02
-1.361971e-02	3.150000e-01	-2.673020e-02
-1.361971e-02	3.100000e-01	-2.673020e-02
-9.270510e-03	5.950000e-01	-2.853170e-02
-9.270510e-03	5.900000e-01	-2.853170e-02
-9.270510e-03	5.850000e-01	-2.853170e-02
-9.270510e-03	5.800000e-01	-2.853170e-02
-9.270510e-03	5.750000e-01	-2.853170e-02
-9.270510e-03	5.700000e-01	-2.853170e-02
-9.270510e-03	5.650000e-01	-2.853170e-02
-9.270510e-03	5.600000e-01	-2.853170e-02
-9.270510e-03	5.550000e-01	-2.853170e-02
-9.270510e-03	5.500000e-01	-2.853170e-02
-9.270510e-03	5.450000e-01	-2.853170e-02
-9.270510e-03	5.400000e-01	-2.853170e-02
-9.270510e-03	5.350000e-01	-2.853170e-02
-9.270510e-03	5.300000e-01	-2.853170e-02
-9.270510e-03	5.250000e-01	-2.853170e-02
-9.270510e-03	5.200000e-01	-2.853170e-02
-9.270510e-03	5.150000e-01	-2.853170e-02
-9.270510e-03	5.100000e-01	-2.853170e-02
-9.270510e-03	5.050000e-01	-2.853170e-02
-9.270510e-03	5.000000e-01	-2.853170e-02
-9.270510e-03	4.950000e-01	-2.853170e-02
-9.270510e-03	4.900000e-01	-2.853170e-02
-9.270510e-03	4.850000e-01	-2.853170e-02
-9.270510e-03	4.800000e-01	-2.853170e-02
-9.270510e-03	4.750000e-01	-2.853170e-02
-9.270510e-03	4.700000e-01	-2.853170e-02
-9.270510e-03	4.650000e-01	-2.853170e-02
-9.270510e-03	4.600000e-01	-2.853170e-02
-9.270510e-03	4.550000e-01	-2.853170e-02
-9.270510e-03	4.500000e-01	-2.853170e-02
-9.270510e-03	4.450000e-01	-2.853170e-02
-9.270510e-03	4.400000e-01	-2.853170e-02
-9.270510e-03	4.350000e-01	-2.853170e-02
-9.270510e-03	4.300000e-01	-2.853170e-02
-9.270510e-03	4.250000e-01	-2.853170e-02
-9.270510e-03	4.200000e-01	-2.853170e-02
-9.270510e-03	4.150000e-01	-2.853170e-02
-9.270510e-03	4.100000e-01	-2.853170e-02
-9.270510e-03	4.050000e-01	-2.853170e-02
-9.270510e-03	4.000000e-01	-2.853170e-02
-9.270510e-03	3.950000e-01	-2.853170e-02
-9.270510e-03	3.900000e-01	-2.853170e-02
-9.270510e-03	3.850000e-01	-2.853170e-02
-9.270510e-03	3.800000e-01	-2.853170e-02
-9.270510e-03	3.750000e-01	-2.853170e-02
-9.270510e-03	3.700000e-01	-2.853170e-02
-9.270510e-03	3.650000e-01	-2.853170e-02
-9.270510e-03	3.600000e-01	-2.853170e-02
-9.270510e-03	3.550000e-01	-2.853170e-02
-9.270510e-03	3.500000e-01	-2.853170e-02
-9.270510e-03	3.450000e-01	-2.853170e-02
-9.270510e-03	3.400000e-01	-2.853170e-02
-9.270510e-03	3.350000e-01	-2.853170e-02
-9.270510e-03	3.300000e-01	-2.853170e-02
-9.270510e-03	3.250000e-01	-2.853170e-02
-9.270510e-03	3.200000e-01	-2.853170e-02
-9.270510e-03	3.150000e-01	-2.853170e-02
-9.270510e-03	3.100000e-01	-2.853170e-02
-4.693034e-03	5.950000e-01	-2.963065e-02
-4.693034e-03	5.900000e-01	-2.963065e-02
-4.693034e-03	5.850000e-01	-2.963065e-02
-4.693034e-03	5.800000e-01	-2.963065e-02
-4.693034e-03	5.750000e-01	-2.963065e-02
-4.693034e-03	5.700000e-01	-2.963065e-02
-4.693034e-03	5.650000e-01	-2.963065e-02
-4.693034e-03	5.600000e-01	-2.963065e-02
-4.693034e-03	5.550000e-01	-2.963065e-02
-4.693034e-03	5.500000e-01	-2.963065e-02
-4.693034e-03	5.450000e-01	-2.963065e-02
-4.693034e-03	5.400000e-01	-2.963065e-02
-4.693034e-03	5.350000e-01	-2.963065e-02
-4.693034e-03	5.300000e-01	-2.963065e-02
-4.693034e-03	5.250000e-01	-2.963065e-02
-4.693034e-03	5.200000e-01	-2.963065e-02
-4.693034e-03	5.150000e-01	-2.963065e-02
-4.693034e-03	5.100000e-01	-2.963065e-02
-4.693034e-03	5.050000e-01	-2.963065e-02
-4.693034e-03	5.000000e-01	-2.963065e-02
-4.693034e-03	4.950000e-01	-2.963065e-02
-4.693034e-03	4.900000e-01	-2.963065e-02
-4.693034e-03	4.850000e-01	-2.963065e-02
-4.693034e-03	4.800000e-01	-2.963065e-02
-4.693034e-03	4.750000e-01	-2.963065e-02
-4.693034e-03	4.700000e-01	-2.963065e-02
-4.693034e-03	4.650000e-01	-2.963065e-02
-4.693034e-03	4.600000e-01	-2.963065e-02
-4.693034e-03	4.550000e-01	-2.963065e-02
-4.693034e-03	4.500000e-01	-2.963065e-02
-4.693034e-03	4.450000e-01	-2.963065e-02
-4.693034e-03	4.400000e-01	-2.963065e-02
-4.693034e-03	4.350000e-01	-2.963065e-02
-4.693034e-03	4.300000e-01	-2.963065e-02
-4.693034e-03	4.250000e-01	-2.963065e-02
-4.693034e-03	4.200000e-01	-2.963065e-02
-4.693034e-03	4.150000e-01	-2.963065e-02
-4.693034e-03	4.100000e-01	-2.963065e-02
-4.693034e-03	4.050000e-01	-2.963065e-02
-4.693034e-03	4.000000e-01	-2.963065e-02
-4.693034e-03	3.950000e-01	-2.963065e-02
-4.693034e-03	3.900000e-01	-2.963065e-02
-4.693034e-03	3.850000e-01	-2.963065e-02
-4.693034e-03	3.800000e-01	-2.963065e-02
-4.693034e-03	3.750000e-01	-2.963065e-02
-4.693034e-03	3.700000e-01	-2.963065e-02
-4.693034e-03	3.650000e-01	-2.963065e-02
-4.693034e-03	3.600000e-01	-2.963065e-02
-4.693034e-03	3.550000e-01	-2.963065e-02
-4.693034e-03	3.500000e-01	-2.963065e-02
-4.693034e-03	3.450000e-01	-2.963065e-02
-4.693034e-03	3.400000e-01	-2.963065e-02
-4.693034e-03	3.350000e-01	-2.963065e-02
-4.693034e-03	3.300000e-01	-2.963065e-02
-4.693034e-03	3.250000e-01	-2.963065e-02
-4.693034e-03	3.200000e-01	-2.963065e-02
-4.693034e-03	3.150000e-01	-2.963065e-02
-4.693034e-03	3.100000e-01	-2.963065e-02
0.000000e+00	0.000000e+00	3.000000e-02
-2.963065e-02	0.000000e+00	4.693034e-03
-2.853170e-02	0.000000e+00	9.270510e-03
-2.673020e-02	0.000000e+00	1.361971e-02
-2.427051e-02	0.000000e+00	1.763356e-02
-2.121320e-02	0.000000e+00	2.121320e-02
-1.763356e-02	0.000000e+00	2.427051e-02
-1.361971e-02	0.000000e+00	2.673020e-02
-9.270510e-03	0.000000e+00	2.853170e-02
-4.693034e-03	0.000000e+00	2.963065e-02
0.000000e+00	2.950000e-01	3.000000e-02
0.000000e+00	5.000000e-03	3.000000e-02
0.000000e+00	1.000000e-02	3.000000e-02
0.000000e+00	1.500000e-02	3.000000e-02
0.000000e+00	2.000000e-02	3.000000e-02
0.000000e+00	2.500000e-02	3.000000e-02
0.000000e+00	3.000000e-02	3.000000e-02
0.000000e+00	3.500000e-02	3.000000e-02
0.000000e+00	4.000000e-02	3.000000e-02
0.000000e+00	4.500000e-02	3.000000e-02
0.000000e+00	5.000000e-02	3.000000e-02
0.000000e+00	5.500000e-02	3.000000e-02
0.000000e+00	6.000000e-02	3.000000e-02
0.000000e+00	6.500000e-02	3.000000e-02
0.000000e+00	7.000000e-02	3.000000e-02
0.000000e+00	7.500000e-02	3.000000e-02
0.000000e+00	8.000000e-02	3.000000e-02
0.000000e+00	8.500000e-02	3.000000e-02
0.000000e+00	9.000000e-02	3.000000e-02
0.000000e+00	9.500000e-02	3.000000e-02
0.000000e+00	1.000000e-01	3.000000e-02
0.000000e+00	1.050000e-01	3.000000e-02
0.000000e+00	1.100000e-01	3.000000e-02
0.000000e+00	1.150000e-01	3.000000e-02
0.000000e+00	1.200000e-01	3.000000e-02
0.000000e+00	1.250000e-01	3.000000e-02
0.000000e+00	1.300000e-01	3.000000e-02
0.000000e+00	1.350000e-01	3.000000e-02
0.000000e+00	1.400000e-01	3.000000e-02
0.000000e+00	1.450000e-01	3.000000e-02
0.000000e+00	1.500000e-01	3.000000e-02
0.000000e+00	1.550000e-01	3.000000e-02
0.000000e+00	1.600000e-01	3.000000e-02
0.000000e+00	1.650000e-01	3.000000e-02
0.000000e+00	1.700000e-01	3.000000e-02
0.000000e+00	1.750000e-01	3.000000e-02
0.000000e+00	1.800000e-01	3.000000e-02
0.000000e+00	1.850000e-01	3.000000e-02
0.000000e+00	1.900000e-01	3.000000e-02
0.000000e+00	1.950000e-01	3.000000e-02
0.000000e+00	2.000000e-01	3.000000e-02
0.000000e+00	2.050000e-01	3.000000e-02
0.000000e+00	2.100000e-01	3.000000e-02
0.000000e+00	2.150000e-01	3.000000e-02
0.000000e+00	2.200000e-01	3.000000e-02
0.000000e+00	2.250000e-01	3.000000e-02
0.000000e+00	2.300000e-01	3.000000e-02
0.000000e+00	2.350000e-01	3.000000e-02
0.000000e+00	2.400000e-01	3.000000e-02
0.000000e+00	2.450000e-01	3.000000e-02
0.000000e+00	2.500000e-01	3.000000e-02
0.000000e+00	2.550000e-01	3.000000e-02
0.000000e+00	2.600000e-01	3.000000e-02
0.000000e+00	2.650000e-01	3.000000e-02
0.000000e+00	2.700000e-01	3.000000e-02
0.000000e+00	2.750000e-01	3.000000e-02
0.000000e+00	2.800000e-01	3.000000e-02
0.000000e+00	2.850000e-01	3.000000e-02
0.000000e+00	2.900000e-01	3.000000e-02
-2.963065e-02	2.950000e-01	4.693034e-03
-2.853170e-02	2.950000e-01	9.270510e-03
-2.673020e-02	2.950000e-01	1.361971e-02
-2.427051e-02	2.950000e-01	1.763356e-02
-2.121320e-02	2.950000e-01	2.121320e-02
-1.763356e-02	2.950000e-01	2.427051e-02
-1.361971e-02	2.950000e-01	2.673020e-02
-9.270510e-03	2.950000e-01	2.853170e-02
-4.693034e-03	2.950000e-01	2.963065e-02
-4.693034e-03	2.900000e-01	2.963065e-02
-4.693034e-03	2.850000e-01	2.963065e-02
-4.693034e-03	2.800000e-01	2.963065e-02
-4.693034e-03	2.750000e-01	2.963065e-02
-4.693034e-03	2.700000e-01	2.963065e-02
-4.693034e-03	2.650000e-01	2.963065e-02
-4.693034e-03	2.600000e-01	2.963065e-02
-4.693034e-03	2.550000e-01	2.963065e-02
-4.693034e-03	2.500000e-01	2.963065e-02
-4.693034e-03	2.450000e-01	2.963065e-02
-4.693034e-03	2.400000e-01	2.963065e-02
-4.693034e-03	2.350000e-01	2.963065e-02
-4.693034e-03	2.300000e-01	2.963065e-02
-4.693034e-03	2.250000e-01	2.963065e-02
-4.693034e-03	2.200000e-01	2.963065e-02
-4.693034e-03	2.150000e-01	2.963065e-02
-4.693034e-03	2.100000e-01	2.963065e-02
-4.693034e-03	2.050000e-01	2.963065e-02
-4.693034e-03	2.000000e-01	2.963065e-02
-4.693034e-03	1.950000e-01	2.963065e-02
-4.693034e-03	1.900000e-01	2.963065e-02
-4.693034e-03	1.850000e-01	2.963065e-02
-4.693034e-03	1.800000e-01	2.963065e-02
-4.693034e-03	1.750000e-01	2.963065e-02
-4.693034e-03	1.700000e-01	2.963065e-02
-4.693034e-03	1.650000e-01	2.963065e-02
-4.693034e-03	1.600000e-01	2.963065e-02
-4.693034e-03	1.550000e-01	2.963065e-02
-4.693034e-03	1.500000e-01	2.963065e-02
-4.693034e-03	1.450000e-01	2.963065e-02
-4.693034e-03	1.400000e-01	2.963065e-02
-4.693034e-03	1.350000e-01	2.963065e-02
-4.693034e-03	1.300000e-01	2.963065e-02
-4.693034e-03	1.250000e-01	2.963065e-02
-4.693034e-03	1.200000e-01	2.963065e-02
-4.693034e-03	1.150000e-01	2.963065e-02
-4.693034e-03	1.100000e-01	2.963065e-02
-4.693034e-03	1.050000e-01	2.963065e-02
-4.693034e-03	1.000000e-01	2.963065e-02
-4.693034e-03	9.500000e-02	2.963065e-02
-4.693034e-03	9.000000e-02	2.963065e-02
-4.693034e-03	8.500000e-02	2.963065e-02
-4.693034e-03	8.000000e-02	2.963065e-02
-4.693034e-03	7.500000e-02	2.963065e-02
-4.693034e-03	7.000000e-02	2.963065e-02
-4.693034e-03	6.500000e-02	2.963065e-02
-4.693034e-03	6.000000e-02	2.963065e-02
-4.693034e-03	5.500000e-02	2.963065e-02
-4.693034e-03	5.000000e-02	2.963065e-02
-4.693034e-03	4.500000e-02	2.963065e-02
-4.693034e-03	4.000000e-02	2.963065e-02
-4.693034e-03	3.500000e-02	2.963065e-02
-4.693034e-03	3.000000e-02	2.963065e-02
-4.693034e-03	2.500000e-02	2.963065e-02
-4.693034e-03	2.000000e-02	2.963065e-02
-4.693034e-03	1.500000e-02	2.963065e-02
-4.693034e-03	1.000000e-02	2.963065e-02
-4.693034e-03	5.000000e-03	2.963065e-02
-9.270510e-03	2.900000e-01	2.853170e-02
-9.270510e-03	2.850000e-01	2.853170e-02
-9.270510e-03	2.800000e-01	2.853170e-02
-9.270510e-03	2.750000e-01	2.853170e-02
-9.270510e-03	2.700000e-01	2.853170e-02
-9.270510e-03	2.650000e-01	2.853170e-02
-9.270510e-03	2.600000e-01	2.853170e-02
-9.270510e-03	2.550000e-01	2.853170e-02
-9.270510e-03	2.500000e-01	2.853170e-02
-9.270510e-03	2.450000e-01	2.853170e-02
-9.270510e-03	2.400000e-01	2.853170e-02
-9.270510e-03	2.350000e-01	2.853170e-02
-9.270510e-03	2.300000e-01	2.853170e-02
-9.270510e-03	2.250000e-01	2.853170e-02
-9.270510e-03	2.200000e-01	2.853170e-02
-9.270510e-03	2.150000e-01	2.853170e-02
-9.270510e-03	2.100000e-01	2.853170e-02
-9.270510e-03	2.050000e-01	2.853170e-02
-9.270510e-03	2.000000e-01	2.853170e-02
-9.270510e-03	1.950000e-01	2.853170e-02
-9.270510e-03	1.900000e-01	2.853170e-02
-9.270510e-03	1.850000e-01	2.853170e-02
-9.270510e-03	1.800000e-01	2.853170e-02
-9.270510e-03	1.750000e-01	2.853170e-02
-9.270510e-03	1.700000e-01	2.853170e-02
-9.270510e-03	1.650000e-01	2.853170e-02
-9.270510e-03	1.600000e-01	2.853170e-02
-9.270510e-03	1.550000e-01	2.853170e-02
-9.270510e-03	1.500000e-01	2.853170e-02
-9.270510e-03	1.450000e-01	2.853170e-02
-9.270510e-03	1.400000e-01	2.853170e-02
-9.270510e-03	1.350000e-01	2.853170e-02
-9.270510e-03	1.300000e-01	2.853170e-02
-9.270510e-03	1.250000e-01	2.853170e-02
-9.270510e-03	1.200000e-01	2.853170e-02
-9.270510e-03	1.150000e-01	2.853170e-02
-9.270510e-03	1.100000e-01	2.853170e-02
-9.270510e-03	1.050000e-01	2.853170e-02
-9.270510e-03	1.000000e-01	2.853170e-02
-9.270510e-03	9.500000e-02	2.853170e-02
-9.270510e-03	9.000000e-02	2.853170e-02
-9.270510e-03	8.500000e-02	2.853170e-02
-9.270510e-03	8.000000e-02	2.853170e-02
-9.270510e-03	7.500000e-02	2.853170e-02
-9.270510e-03	7.000000e-02	2.853170e-02
-9.270510e-03	6.500000e-02	2.853170e-02
-9.270510e-03	6.000000e-02	2.853170e-02
-9.270510e-03	5.500000e-02	2.853170e-02
-9.270510e-03	5.000000e-02	2.853170e-02
-9.270510e-03	4.500000e-02	2.853170e-02
-9.270510e-03	4.000000e-02	2.853170e-02
-9.270510e-03	3.500000e-02	2.853170e-02
-9.270510e-03	3.000000e-02	2.853170e-02
-9.270510e-03	2.500000e-02	2.853170e-02
-9.270510e-03	2.000000e-02	2.853170e-02
-9.270510e-03	1.500000e-02	2.853170e-02
-9.270510e-03	1.000000e-02	2.853170e-02
-9.270510e-03	5.000000e-03	2.853170e-02
-1.361971e-02	2.900000e-01	2.673020e-02
-1.361971e-02	2.850000e-01	2.673020e-02
-1.361971e-02	2.800000e-01	2.673020e-02
-1.361971e-02	2.750000e-01	2.673020e-02
-1.361971e-02	2.700000e-01	2.673020e-02
-1.361971e-02	2.650000e-01	2.673020e-02
-1.361971e-02	2.600000e-01	2.673020e-02
-1.361971e-02	2.550000e-01	2.673020e-02
-1.361971e-02	2.500000e-01	2.673020e-02
-1.361971e-02	2.450000e-01	2.673020e-02
-1.361971e-02	2.400000e-01	2.673020e-02
-1.361971e-02	2.350000e-01	2.673020e-02
-1.361971e-02	2.300000e-01	2.673020e-02
-1.361971e-02	2.250000e-01	2.673020e-02
-1.361971e-02	2.200000e-01	2.673020e-02
-1.361971e-02	2.150000e-01	2.673020e-02
-1.361971e-02	2.100000e-01	2.673020e-02
-1.361971e-02	2.050000e-01	2.673020e-02
-1.361971e-02	2.000000e-01	2.673020e-02
-1.361971e-02	1.950000e-01	2.673020e-02
-1.361971e-02	1.900000e-01	2.673020e-02
-1.361971e-02	1.850000e-01	2.673020e-02
-1.361971e-02	1.800000e-01	2.673020e-02
-1.361971e-02	1.750000e-01	2.673020e-02
-1.361971e-02	1.700000e-01	2.673020e-02
-1.361971e-02	1.650000e-01	2.673020e-02
-1.361971e-02	1.600000e-01	2.673020e-02
-1.361971e-02	1.550000e-01	2.673020e-02
-1.361971e-02	1.500000e-01	2.673020e-02
-1.361971e-02	1.450000e-01	2.673020e-02
-1.361971e-02	1.400000e-01	2.673020e-02
-1.361971e-02	1.350000e-01	2.673020e-02
-1.361971e-02	1.300000e-01	2.673020e-02
-1.361971e-02	1.250000e-01	2.673020e-02
-1.361971e-02	1.200000e-01	2.673020e-02
-1.361971e-02	1.150000e-01	2.673020e-02
-1.361971e-02	1.100000e-01	2.673020e-02
-1.361971e-02	1.050000e-01	2.673020e-02
-1.361971e-02	1.000000e-01	2.673020e-02
-1.361971e-02	9.500000e-02	2.673020e-02
-1.361971e-02	9.000000e-02	2.673020e-02
-1.361971e-02	8.500000e-02	2.673020e-02
-1.361971e-02	8.000000e-02	2.673020e-02
-1.361971e-02	7.500000e-02	2.673020e-02
-1.361971e-02	7.000000e-02	2.673020e-02
-1.361971e-02	6.500000e-02	2.673020e-02
-1.361971e-02	6.000000e-02	2.673020e-02
-1.361971e-02	5.500000e-02	2.673020e-02
-1.361971e-02	5.000000e-02	2.673020e-02
-1.361971e-02	4.500000e-02	2.673020e-02
-1.361971e-02	4.000000e-02	2.673020e-02
-1.361971e-02	3.500000e-02	2.673020e-02
-1.361971e-02	3.000000e-02	2.673020e-02
-1.361971e-02	2.500000e-02	2.673020e-02
-1.361971e-02	2.000000e-02	2.673020e-02
-1.361971e-02	1.500000e-02	2.673020e-02
-1.361971e-02	1.000000e-02	2.673020e-02
-1.361971e-02	5.000000e-03	2.673020e-02
-1.763356e-02	2.900000e-01	2.427051e-02
-1.763356e-02	2.850000e-01	2.427051e-02
-1.763356e-02	2.800000e-01	2.427051e-02
-1.763356e-02	2.750000e-01	2.427051e-02
-1.763356e-02	2.700000e-01	2.427051e-02
-1.763356e-02	2.650000e-01	2.427051e-02
-1.763356e-02	2.600000e-01	2.427051e-02
-1.763356e-02	2.550000e-01	2.427051e-02
-1.763356e-02	2.500000e-01	2.427051e-02
-1.763356e-02	2.450000e-01	2.427051e-02
-1.763356e-02	2.400000e-01	2.427051e-02
-1.763356e-02	2.350000e-01	2.427051e-02
-1.763356e-02	2.300000e-01	2.427051e-02
-1.763356e-02	2.250000e-01	2.427051e-02
-1.763356e-02	2.200000e-01	2.427051e-02
-1.763356e-02	2.150000e-01	2.427051e-02
-1.763356e-02	2.100000e-01	2.427051e-02
-1.763356e-02	2.050000e-01	2.427051e-02
-1.763356e-02	2.000000e-01	2.427051e-02
-1.763356e-02	1.950000e-01	2.427051e-02
-1.763356e-02	1.900000e-01	2.427051e-02
-1.763356e-02	1.850000e-01	2.427051e-02
-1.763356e-02	1.800000e-01	2.427051e-02
-1.763356e-02	1.750000e-01	2.427051e-02
-1.763356e-02	1.700000e-01	2.427051e-02
-1.763356e-02	1.650000e-01	2.427051e-02
-1.763356e-02	1.600000e-01	2.427051e-02
-1.763356e-02	1.550000e-01	2.427051e-02
-1.763356e-02	1.500000e-01	2.427051e-02
-1.763356e-02	1.450000e-01	2.427051e-02
-1.763356e-02	1.400000e-01	2.427051e-02
-1.763356e-02	1.350000e-01	2.427051e-02
-1.763356e-02	1.300000e-01	2.427051e-02
-1.763356e-02	1.250000e-01	2.427051e-02
-1.763356e-02	1.200000e-01	2.427051e-02
-1.763356e-02	1.150000e-01	2.427051e-02
-1.763356e-02	1.100000e-01	2.427051e-02
-1.763356e-02	1.050000e-01	2.427051e-02
-1.763356e-02	1.000000e-01	2.427051e-02
-1.763356e-02	9.500000e-02	2.427051e-02
-1.763356e-02	9.000000e-02	2.427051e-02
-1.763356e-02	8.500000e-02	2.427051e-02
-1.763356e-02	8.000000e-02	2.427051e-02
-1.763356e-02	7.500000e-02	2.427051e-02
-1.763356e-02	7.000000e-02	2.427051e-02
-1.763356e-02	6.500000e-02	2.427051e-02
-1.763356e-02	6.000000e-02	2.427051e-02
-1.763356e-02	5.500000e-02	2.427051e-02
-1.763356e-02	5.000000e-02	2.427051e-02
-1.763356e-02	4.500000e-02	2.427051e-02
-1.763356e-02	4.000000e-02	2.427051e-02
-1.763356e-02	3.500000e-02	2.427051e-02
-1.763356e-02	3.000000e-02	2.427051e-02
-1.763356e-02	2.500000e-02	2.427051e-02
-1.763356e-02	2.000000e-02	2.427051e-02
-1.763356e-02	1.500000e-02	2.427051e-02
-1.763356e-02	1.000000e-02	2.427051e-02
-1.763356e-02	5.000000e-03	2.427051e-02
-2.121320e-02	2.900000e-01	2.121320e-02
-2.121320e-02	2.850000e-01	2.121320e-02
-2.121320e-02	2.800000e-01	2.121320e-02
-2.121320e-02	2.750000e-01	2.121320e-02
-2.121320e-02	2.700000e-01	2.121320e-02
-2.121320e-02	2.650000e-01	2.121320e-02
-2.121320e-02	2.600000e-01	2.121320e-02
-2.121320e-02	2.550000e-01	2.121320e-02
-2.121320e-02	2.500000e-01	2.121320e-02
-2.121320e-02	2.450000e-01	2.121320e-02
-2.121320e-02	2.400000e-01	2.121320e-02
-2.121320e-02	2.350000e-01	2.121320e-02
-2.121320e-02	2.300000e-01	2.121320e-02
-2.121320e-02	2.250000e-01	2.121320e-02
-2.121320e-02	2.200000e-01	2.121320e-02
-2.121320e-02	2.150000e-01	2.121320e-02
-2.121320e-02	2.100000e-01	2.121320e-02
-2.121320e-02	2.050000e-01	2.121320e-02
-2.121320e-02	2.000000e-01	2.121320e-02
-2.121320e-02	1.950000e-01	2.121320e-02
-2.121320e-02	1.900000e-01	2.121320e-02
-2.121320e-02	1.850000e-01	2.121320e-02
-2.121320e-02	1.800000e-01	2.121320e-02
-2.121320e-02	1.750000e-01	2.121320e-02
-2.121320e-02	1.700000e-01	2.121320e-02
-2.121320e-02	1.650000e-01	2.121320e-02
-2.121320e-02	1.600000e-01	2.121320e-02
-2.121320e-02	1.550000e-01	2.121320e-02
-2.121320e-02	1.500000e-01	2.121320e-02
-2.121320e-02	1.450000e-01	2.121320e-02
-2.121320e-02	1.400000e-01	2.121320e-02
-2.121320e-02	1.350000e-01	2.121320e-02
-2.121320e-02	1.300000e-01	2.121320e-02
-2.121320e-02	1.250000e-01	2.121320e-02
-2.121320e-02	1.200000e-01	2.121320e-02
-2.121320e-02	1.150000e-01	2.121320e-02
-2.121320e-02	1.100000e-01	2.121320e-02
-2.121320e-02	1.050000e-01	2.121320e-02
-2.121320e-02	1.000000e-01	2.121320e-02
-2.121320e-02	9.500000e-02	2.121320e-02
-2.121320e-02	9.000000e-02	2.121320e-02
-2.121320e-02	8.500000e-02	2.121320e-02
-2.121320e-02	8.000000e-02	2.121320e-02
-2.121320e-02	7.500000e-02	2.121320e-02
-2.121320e-02	7.000000e-02	2.121320e-02
-2.121320e-02	6.500000e-02	2.121320e-02
-2.121320e-02	6.000000e-02	2.121320e-02
-2.121320e-02	5.500000e-02	2.121320e-02
-2.121320e-02	5.000000e-02	2.121320e-02
-2.121320e-02	4.500000e-02	2.121320e-02
-2.121320e-02	4.000000e-02	2.121320e-02
-2.121320e-02	3.500000e-02	2.121320e-02
-2.121320e-02	3.000000e-02	2.121320e-02
-2.121320e-02	2.500000e-02	2.121320e-02
-2.121320e-02	2.000000e-02	2.121320e-02
-2.121320e-02	1.500000e-02	2.121320e-02
-2.121320e-02	1.000000e-02	2.121320e-02
-2.121320e-02	5.000000e-03	2.121320e-02
-2.427051e-02	2.900000e-01	1.763356e-02
-2.427051e-02	2.850000e-01	1.763356e-02
-2.427051e-02	2.800000e-01	1.763356e-02
-2.427051e-02	2.750000e-01	1.763356e-02
-2.427051e-02	2.700000e-01	1.763356e-02
-2.427051e-02	2.650000e-01	1.763356e-02
-2.427051e-02	2.600000e-01	1.763356e-02
-2.427051e-02	2.550000e-01	1.763356e-02
-2.427051e-02	2.500000e-01	1.763356e-02
-2.427051e-02	2.450000e-01	1.763356e-02
-2.427051e-02	2.400000e-01	1.763356e-02
-2.427051e-02	2.350000e-01	1.763356e-02
-2.427051e-02	2.300000e-01	1.763356e-02
-2.427051e-02	2.250000e-01	1.763356e-02
-2.427051e-02	2.200000e-01	1.763356e-02
-2.427051e-02	2.150000e-01	1.763356e-02
-2.427051e-02	2.100000e-01	1.763356e-02
-2.427051e-02	2.050000e-01	1.763356e-02
-2.427051e-02	2.000000e-01	1.763356e-02
-2.427051e-02	1.950000e-01	1.763356e-02
-2.427051e-02	1.900000e-01	1.763356e-02
-2.427051e-02	1.850000e-01	1.763356e-02
-2.427051e-02	1.800000e-01	1.763356e-02
-2.427051e-02	1.750000e-01	1.763356e-02
-2.427051e-02	1.700000e-01	1.763356e-02
-2.427051e-02	1.650000e-01	1.763356e-02
-2.427051e-02	1.600000e-01	1.763356e-02
-2.427051e-02	1.550000e-01	1.763356e-02
-2.427051e-02	1.500000e-01	1.763356e-02
-2.427051e-02	1.450000e-01	1.763356e-02
-2.427051e-02	1.400000e-01	1.763356e-02
-2.427051e-02	1.350000e-01	1.763356e-02
-2.427051e-02	1.300000e-01	1.763356e-02
-2.427051e-02	1.250000e-01	1.763356e-02
-2.427051e-02	1.200000e-01	1.763356e-02
-2.427051e-02	1.150000e-01	1.763356e-02
-2.427051e-02	1.100000e-01	1.763356e-02
-2.427051e-02	1.050000e-01	1.763356e-02
-2.427051e-02	1.000000e-01	1.763356e-02
-2.427051e-02	9.500000e-02	1.763356e-02
-2.427051e-02	9.000000e-02	1.763356e-02
-2.427051e-02	8.500000e-02	1.763356e-02
-2.427051e-02	8.000000e-02	1.763356e-02
-2.427051e-02	7.500000e-02	1.763356e-02
-2.427051e-02	7.000000e-02	1.763356e-02
-2.427051e-02	6.500000e-02	1.763356e-02
-2.427051e-02	6.000000e-02	1.763356e-02
-2.427051e-02	5.500000e-02	1.763356e-02
-2.427051e-02	5.000000e-02	1.763356e-02
-2.427051e-02	4.500000e-02	1.763356e-02
-2.427051e-02	4.000000e-02	1.763356e-02
-2.427051e-02	3.500000e-02	1.763356e-02
-2.427051e-02	3.000000e-02	1.763356e-02
-2.427051e-02	2.500000e-02	1.763356e-02
-2.427051e-02	2.000000e-02	1.763356e-02
-2.427051e-02	1.500000e-02	1.763356e-02
-2.427051e-02	1.000000e-02	1.763356e-02
-2.427051e-02	5.000000e-03	1.763356e-02
-2.673020e-02	2.900000e-01	1.361971e-02
-2.673020e-02	2.850000e-01	1.361971e-02
-2.673020e-02	2.800000e-01	1.361971e-02
-2.673020e-02	2.750000e-01	1.361971e-02
-2.673020e-02	2.700000e-01	1.361971e-02
-2.673020e-02	2.650000e-01	1.361971e-02
-2.673020e-02	2.600000e-01	1.361971e-02
-2.673020e-02	2.550000e-01	1.361971e-02
-2.673020e-02	2.500000e-01	1.361971e-02
-2.673020e-02	2.450000e-01	1.361971e-02
-2.673020e-02	2.400000e-01	1.361971e-02
-2.673020e-02	2.350000e-01	1.361971e-02
-2.673020e-02	2.300000e-01	1.361971e-02
-2.673020e-02	2.250000e-01	1.361971e-02
-2.673020e-02	2.200000e-01	1.361971e-02
-2.673020e-02	2.150000e-01	1.361971e-02
-2.673020e-02	2.100000e-01	1.361971e-02
-2.673020e-02	2.050000e-01	1.361971e-02
-2.673020e-02	2.000000e-01	1.361971e-02
-2.673020e-02	1.950000e-01	1.361971e-02
-2.673020e-02	1.900000e-01	1.361971e-02
-2.673020e-02	1.850000e-01	1.361971e-02
-2.673020e-02	1.800000e-01	1.361971e-02
-2.673020e-02	1.750000e-01	1.361971e-02
-2.673020e-02	1.700000e-01	1.361971e-02
-2.673020e-02	1.650000e-01	1.361971e-02
-2.673020e-02	1.600000e-01	1.361971e-02
-2.673020e-02	1.550000e-01	1.361971e-02
-2.673020e-02	1.500000e-01	1.361971e-02
-2.673020e-02	1.450000e-01	1.361971e-02
-2.673020e-02	1.400000e-01	1.361971e-02
-2.673020e-02	1.350000e-01	1.361971e-02
-2.673020e-02	1.300000e-01	1.361971e-02
-2.673020e-02	1.250000e-01	1.361971e-02
-2.673020e-02	1.200000e-01	1.361971e-02
-2.673020e-02	1.150000e-01	1.361971e-02
-2.673020e-02	1.100000e-01	1.361971e-02
-2.673020e-02	1.050000e-01	1.361971e-02
-2.673020e-02	1.000000e-01	1.361971e-02
-2.673020e-02	9.500000e-02	1.361971e-02
-2.673020e-02	9.000000e-02	1.361971e-02
-2.673020e-02	8.500000e-02	1.361971e-02
-2.673020e-02	8.000000e-02	1.361971e-02
-2.673020e-02	7.500000e-02	1.361971e-02
-2.673020e-02	7.000000e-02	1.361971e-02
-2.673020e-02	6.500000e-02	1.361971e-02
-2.673020e-02	6.000000e-02	1.361971e-02
-2.673020e-02	5.500000e-02	1.361971e-02
-2.673020e-02	5.000000e-02	1.361971e-02
-2.673020e-02	4.500000e-02	1.361971e-02
-2.673020e-02	4.000000e-02	1.361971e-02
-2.673020e-02	3.500000e-02	1.361971e-02
-2.673020e-02	3.000000e-02	1.361971e-02
-2.673020e-02	2.500000e-02	1.361971e-02
-2.673020e-02	2.000000e-02	1.361971e-02
-2.673020e-02	1.500000e-02	1.361971e-02
-2.673020e-02	1.000000e-02	1.361971e-02
-2.673020e-02	5.000000e-03	1.361971e-02
-2.853170e-02	2.900000e-01	9.270510e-03
-2.853170e-02	2.850000e-01	9.270510e-03
-2.853170e-02	2.800000e-01	9.270510e-03
-2.853170e-02	2.750000e-01	9.270510e-03
-2.853170e-02	2.700000e-01	9.270510e-03
-2.853170e-02	2.650000e-01	9.270510e-03
-2.853170e-02	2.600000e-01	9.270510e-03
-2.853170e-02	2.550000e-01	9.270510e-03
-2.853170e-02	2.500000e-01	9.270510e-03
-2.853170e-02	2.450000e-01	9.270510e-03
-2.853170e-02	2.400000e-01	9.270510e-03
-2.853170e-02	2.350000e-01	9.270510e-03
-2.853170e-02	2.300000e-01	9.270510e-03
-2.853170e-02	2.250000e-01	9.270510e-03
-2.853170e-02	2.200000e-01	9.270510e-03
-2.853170e-02	2.150000e-01	9.270510e-03
-2.853170e-02	2.100000e-01	9.270510e-03
-2.853170e-02	2.050000e-01	9.270510e-03
-2.853170e-02	2.000000e-01	9.270510e-03
-2.853170e-02	1.950000e-01	9.270510e-03
-2.853170e-02	1.900000e-01	9.270510e-03
-2.853170e-02	1.850000e-01	9.270510e-03
-2.853170e-02	1.800000e-01	9.270510e-03
-2.853170e-02	1.750000e-01	9.270510e-03
-2.853170e-02	1.700000e-01	9.270510e-03
-2.853170e-02	1.650000e-01	9.270510e-03
-2.853170e-02	1.600000e-01	9.270510e-03
-2.853170e-02	1.550000e-01	9.270510e-03
-2.853170e-02	1.500000e-01	9.270510e-03
-2.853170e-02	1.450000e-01	9.270510e-03
-2.853170e-02	1.400000e-01	9.270510e-03
-2.853170e-02	1.350000e-01	9.270510e-03
-2.853170e-02	1.300000e-01	9.270510e-03
-2.853170e-02	1.250000e-01	9.270510e-03
-2.853170e-02	1.200000e-01	9.270510e-03
-2.853170e-02	1.150000e-01	9.270510e-03
-2.853170e-02	1.100000e-01	9.270510e-03
-2.853170e-02	1.050000e-01	9.270510e-03
-2.853170e-02	1.000000e-01	9.270510e-03
-2.853170e-02	9.500000e-02	9.270510e-03
-2.853170e-02	9.000000e-02	9.270510e-03
-2.853170e-02	8.500000e-02	9.270510e-03
-2.853170e-02	8.000000e-02	9.270510e-03
-2.853170e-02	7.500000e-02	9.270510e-03
-2.853170e-02	7.000000e-02	9.270510e-03
-2.853170e-02	6.500000e-02	9.270510e-03
-2.853170e-02	6.000000e-02	9.270510e-03
-2.853170e-02	5.500000e-02	9.270510e-03
-2.853170e-02	5.000000e-02	9.270510e-03
-2.853170e-02	4.500000e-02	9.270510e-03
-2.853170e-02	4.000000e-02	9.270510e-03
-2.853170e-02	3.500000e-02	9.270510e-03
-2.853170e-02	3.000000e-02	9.270510e-03
-2.853170e-02	2.500000e-02	9.270510e-03
-2.853170e-02	2.000000e-02	9.270510e-03
-2.853170e-02	1.500000e-02	9.270510e-03
-2.853170e-02	1.000000e-02	9.270510e-03
-2.853170e-02	5.000000e-03	9.270510e-03
-2.963065e-02	2.900000e-01	4.693034e-03
-2.963065e-02	2.850000e-01	4.693034e-03
-2.963065e-02	2.800000e-01	4.693034e-03
-2.963065e-02	2.750000e-01	4.693034e-03
-2.963065e-02	2.700000e-01	4.693034e-03
-2.963065e-02	2.650000e-01	4.693034e-03
-2.963065e-02	2.600000e-01	4.693034e-03
-2.963065e-02	2.550000e-01	4.693034e-03
-2.963065e-02	2.500000e-01	4.693034e-03
-2.963065e-02	2.450000e-01	4.693034e-03
-2.963065e-02	2.400000e-01	4.693034e-03
-2.963065e-02	2.350000e-01	4.693034e-03
-2.963065e-02	2.300000e-01	4.693034e-03
-2.963065e-02	2.250000e-01	4.693034e-03
-2.963065e-02	2.200000e-01	4.693034e-03
-2.963065e-02	2.150000e-01	4.693034e-03
-2.963065e-02	2.100000e-01	4.693034e-03
-2.963065e-02	2.050000e-01	4.693034e-03
-2.963065e-02	2.000000e-01	4.693034e-03
-2.963065e-02	1.950000e-01	4.693034e-03
-2.963065e-02	1.900000e-01	4.693034e-03
-2.963065e-02	1.850000e-01	4.693034e-03
-2.963065e-02	1.800000e-01	4.693034e-03
-2.963065e-02	1.750000e-01	4.693034e-03
-2.963065e-02	1.700000e-01	4.693034e-03
-2.963065e-02	1.650000e-01	4.693034e-03
-2.963065e-02	1.600000e-01	4.693034e-03
-2.963065e-02	1.550000e-01	4.693034e-03
-2.963065e-02	1.500000e-01	4.693034e-03
-2.963065e-02	1.450000e-01	4.693034e-03
-2.963065e-02	1.400000e-01	4.693034e-03
-2.963065e-02	1.350000e-01	4.693034e-03
-2.963065e-02	1.300000e-01	4.693034e-03
-2.963065e-02	1.250000e-01	4.693034e-03
-2.963065e-02	1.200000e-01	4.693034e-03
-2.963065e-02	1.150000e-01	4.693034e-03
-2.963065e-02	1.100000e-01	4.693034e-03
-2.963065e-02	1.050000e-01	4.693034e-03
-2.963065e-02	1.000000e-01	4.693034e-03
-2.963065e-02	9.500000e-02	4.693034e-03
-2.963065e-02	9.000000e-02	4.693034e-03
-2.963065e-02	8.500000e-02	4.693034e-03
-2.963065e-02	8.000000e-02	4.693034e-03
-2.963065e-02	7.500000e-02	4.693034e-03
-2.963065e-02	7.000000e-02	4.693034e-03
-2.963065e-02	6.500000e-02	4.693034e-03
-2.963065e-02	6.000000e-02	4.693034e-03
-2.963065e-02	5.500000e-02	4.693034e-03
-2.963065e-02	5.000000e-02	4.693034e-03
-2.963065e-02	4.500000e-02	4.693034e-03
-2.963065e-02	4.000000e-02	4.693034e-03
-2.963065e-02	3.500000e-02	4.693034e-03
-2.963065e-02	3.000000e-02	4.693034e-03
-2.963065e-02	2.500000e-02	4.693034e-03
-2.963065e-02	2.000000e-02	4.693034e-03
-2.963065e-02	1.500000e-02	4.693034e-03
-2.963065e-02	1.000000e-02	4.693034e-03
-2.963065e-02	5.000000e-03	4.693034e-03
0.000000e+00	3.050000e-01	3.000000e-02
0.000000e+00	3.000000e-01	3.000000e-02
-2.963065e-02	3.050000e-01	4.693034e-03
-2.853170e-02	3.050000e-01	9.270510e-03
-2.673020e-02	3.050000e-01	1.361971e-02
-2.427051e-02	3.050000e-01	1.763356e-02
-2.121320e-02	3.050000e-01	2.121320e-02
-1.763356e-02	3.050000e-01	2.427051e-02
-1.361971e-02	3.050000e-01	2.673020e-02
-9.270510e-03	3.050000e-01	2.853170e-02
-4.693034e-03	3.050000e-01	2.963065e-02
-4.693034e-03	3.000000e-01	2.963065e-02
-9.270510e-03	3.000000e-01	2.853170e-02
-1.361971e-02	3.000000e-01	2.673020e-02
-1.763356e-02	3.000000e-01	2.427051e-02
-2.121320e-02	3.000000e-01	2.121320e-02
-2.427051e-02	3.000000e-01	1.763356e-02
-2.673020e-02	3.000000e-01	1.361971e-02
-2.853170e-02	3.000000e-01	9.270510e-03
-2.963065e-02	3.000000e-01	4.693034e-03
0.000000e+00	6.000000e-01	3.000000e-02
0.000000e+00	3.100000e-01	3.000000e-02
0.000000e+00	3.150000e-01	3.000000e-02
0.000000e+00	3.200000e-01	3.000000e-02
0.000000e+00	3.250000e-01	3.000000e-02
0.000000e+00	3.300000e-01	3.000000e-02
0.000000e+00	3.350000e-01	3.000000e-02
0.000000e+00	3.400000e-01	3.000000e-02
0.000000e+00	3.450000e-01	3.000000e-02
0.000000e+00	3.500000e-01	3.000000e-02
0.000000e+00	3.550000e-01	3.000000e-02
0.000000e+00	3.600000e-01	3.000000e-02
0.000000e+00	3.650000e-01	3.000000e-02
0.000000e+00	3.700000e-01	3.000000e-02
0.000000e+00	3.750000e-01	3.000000e-02
0.000000e+00	3.800000e-01	3.000000e-02
0.000000e+00	3.850000e-01	3.000000e-02
0.000000e+00	3.900000e-01	3.000000e-02
0.000000e+00	3.950000e-01	3.000000e-02
0.000000e+00	4.000000e-01	3.000000e-02
0.000000e+00	4.050000e-01	3.000000e-02
0.000000e+00	4.100000e-01	3.000000e-02
0.000000e+00	4.150000e-01	3.000000e-02
0.000000e+00	4.200000e-01	3.000000e-02
0.000000e+00	4.250000e-01	3.000000e-02
0.000000e+00	4.300000e-01	3.000000e-02
0.000000e+00	4.350000e-01	3.000000e-02
0.000000e+00	4.400000e-01	3.000000e-02
0.000000e+00	4.450000e-01	3.000000e-02
0.000000e+00	4.500000e-01	3.000000e-02
0.000000e+00	4.550000e-01	3.000000e-02
0.000000e+00	4.600000e-01	3.000000e-02
0.000000e+00	4.650000e-01	3.000000e-02
0.000000e+00	4.700000e-01	3.000000e-02
0.000000e+00	4.750000e-01	3.000000e-02
0.000000e+00	4.800000e-01	3.000000e-02
0.000000e+00	4.850000e-01	3.000000e-02
0.000000e+00	4.900000e-01	3.000000e-02
0.000000e+00	4.950000e-01	3.000000e-02
0.000000e+00	5.000000e-01	3.000000e-02
0.000000e+00	5.050000e-01	3.000000e-02
0.000000e+00	5.100000e-01	3.000000e-02
0.000000e+00	5.150000e-01	3.000000e-02
0.000000e+00	5.200000e-01	3.000000e-02
0.000000e+00	5.250000e-01	3.000000e-02
0.000000e+00	5.300000e-01	3.000000e-02
0.000000e+00	5.350000e-01	3.000000e-02
0.000000e+00	5.400000e-01	3.000000e-02
0.000000e+00	5.450000e-01	3.000000e-02
0.000000e+00	5.500000e-01	3.000000e-02
0.000000e+00	5.550000e-01	3.000000e-02
0.000000e+00	5.600000e-01	3.000000e-02
0.000000e+00	5.650000e-01	3.000000e-02
0.000000e+00	5.700000e-01	3.000000e-02
0.000000e+00	5.750000e-01	3.000000e-02
0.000000e+00	5.800000e-01	3.000000e-02
0.000000e+00	5.850000e-01	3.000000e-02
0.000000e+00	5.900000e-01	3.000000e-02
0.000000e+00	5.950000e-01	3.000000e-02
-2.963065e-02	6.000000e-01	4.693034e-03
-2.853170e-02	6.000000e-01	9.270510e-03
-2.673020e-02	6.000000e-01	1.361971e-02
-2.427051e-02	6.000000e-01	1.763356e-02
-2.121320e-02	6.000000e-01	2.121320e-02
-1.763356e-02	6.000000e-01	2.427051e-02
-1.361971e-02	6.000000e-01	2.673020e-02
-9.270510e-03	6.000000e-01	2.853170e-02
-4.693034e-03	6.000000e-01	2.963065e-02
-4.693034e-03	5.950000e-01	2.963065e-02
-4.693034e-03	5.900000e-01	2.963065e-02
-4.693034e-03	5.850000e-01	2.963065e-02
-4.693034e-03	5.800000e-01	2.963065e-02
-4.693034e-03	5.750000e-01	2.963065e-02
-4.693034e-03	5.700000e-01	2.963065e-02
-4.693034e-03	5.650000e-01	2.963065e-02
-4.693034e-03	5.600000e-01	2.963065e-02
-4.693034e-03	5.550000e-01	2.963065e-02
-4.693034e-03	5.500000e-01	2.963065e-02
-4.693034e-03	5.450000e-01	2.963065e-02
-4.693034e-03	5.400000e-01	2.963065e-02
-4.693034e-03	5.350000e-01	2.963065e-02
-4.693034e-03	5.300000e-01	2.963065e-02
-4.693034e-03	5.250000e-01	2.963065e-02
-4.693034e-03	5.200000e-01	2.963065e-02
-4.693034e-03	5.150000e-01	2.963065e-02
-4.693034e-03	5.100000e-01	2.963065e-02
-4.693034e-03	5.050000e-01	2.963065e-02
-4.693034e-03	5.000000e-01	2.963065e-02
-4.693034e-03	4.950000e-01	2.963065e-02
-4.693034e-03	4.900000e-01	2.963065e-02
-4.693034e-03	4.850000e-01	2.963065e-02
-4.693034e-03	4.800000e-01	2.963065e-02
-4.693034e-03	4.750000e-01	2.963065e-02
-4.693034e-03	4.700000e-01	2.963065e-02
-4.693034e-03	4.650000e-01	2.963065e-02
-4.693034e-03	4.600000e-01	2.963065e-02
-4.693034e-03	4.550000e-01	2.963065e-02
-4.693034e-03	4.500000e-01	2.963065e-02
-4.693034e-03	4.450000e-01	2.963065e-02
-4.693034e-03	4.400000e-01	2.963065e-02
-4.693034e-03	4.350000e-01	2.963065e-02
-4.693034e-03	4.300000e-01	2.963065e-02
-4.693034e-03	4.250000e-01	2.963065e-02
-4.693034e-03	4.200000e-01	2.963065e-02
-4.693034e-03	4.150000e-01	2.963065e-02
-4.693034e-03	4.100000e-01	2.963065e-02
-4.693034e-03	4.050000e-01	2.963065e-02
-4.693034e-03	4.000000e-01	2.963065e-02
-4.693034e-03	3.950000e-01	2.963065e-02
-4.693034e-03	3.900000e-01	2.963065e-02
-4.693034e-03	3.850000e-01	2.963065e-02
-4.693034e-03	3.800000e-01	2.963065e-02
-4.693034e-03	3.750000e-01	2.963065e-02
-4.693034e-03	3.700000e-01	2.963065e-02
-4.693034e-03	3.650000e-01	2.963065e-02
-4.693034e-03	3.600000e-01	2.963065e-02
-4.693034e-03	3.550000e-01	2.963065e-02
-4.693034e-03	3.500000e-01	2.963065e-02
-4.693034e-03	3.450000e-01	2.963065e-02
-4.693034e-03	3.400000e-01	2.963065e-02
-4.693034e-03	3.350000e-01	2.963065e-02
-4.693034e-03	3.300000e-01	2.963065e-02
-4.693034e-03	3.250000e-01	2.963065e-02
-4.693034e-03	3.200000e-01	2.963065e-02
-4.693034e-03	3.150000e-01	2.963065e-02
-4.693034e-03	3.100000e-01	2.963065e-02
-9.270510e-03	5.950000e-01	2.853170e-02
-9.270510e-03	5.900000e-01	2.853170e-02
-9.270510e-03	5.850000e-01	2.853170e-02
-9.270510e-03	5.800000e-01	2.853170e-02
-9.270510e-03	5.750000e-01	2.853170e-02
-9.270510e-03	5.700000e-01	2.853170e-02
-9.270510e-03	5.650000e-01	2.853170e-02
-9.270510e-03	5.600000e-01	2.853170e-02
-9.270510e-03	5.550000e-01	2.853170e-02
-9.270510e-03	5.500000e-01	2.853170e-02
-9.270510e-03	5.450000e-01	2.853170e-02
-9.270510e-03	5.400000e-01	2.853170e-02
-9.270510e-03	5.350000e-01	2.853170e-02
-9.270510e-03	5.300000e-01	2.853170e-02
-9.270510e-03	5.250000e-01	2.853170e-02
-9.270510e-03	5.200000e-01	2.853170e-02
-9.270510e-03	5.150000e-01	2.853170e-02
-9.270510e-03	5.100000e-01	2.853170e-02
-9.270510e-03	5.050000e-01	2.853170e-02
-9.270510e-03	5.000000e-01	2.853170e-02
-9.270510e-03	4.950000e-01	2.853170e-02
-9.270510e-03	4.900000e-01	2.853170e-02
-9.270510e-03	4.850000e-01	2.853170e-02
-9.270510e-03	4.800000e-01	2.853170e-02
-9.270510e-03	4.750000e-01	2.853170e-02
-9.270510e-03	4.700000e-01	2.853170e-02
-9.270510e-03	4.650000e-01	2.853170e-02
-9.270510e-03	4.600000e-01	2.853170e-02
-9.270510e-03	4.550000e-01	2.853170e-02
-9.270510e-03	4.500000e-01	2.853170e-02
-9.270510e-03	4.450000e-01	2.853170e-02
-9.270510e-03	4.400000e-01	2.853170e-02
-9.270510e-03	4.350000e-01	2.853170e-02
-9.270510e-03	4.300000e-01	2.853170e-02
-9.270510e-03	4.250000e-01	2.853170e-02
-9.270510e-03	4.200000e-01	2.853170e-02
-9.270510e-03	4.150000e-01	2.853170e-02
-9.270510e-03	4.100000e-01	2.853170e-02
-9.270510e-03	4.050000e-01	2.853170e-02
-9.270510e-03	4.000000e-01	2.853170e-02
-9.270510e-03	3.950000e-01	2.853170e-02
-9.270510e-03	3.900000e-01	2.853170e-02
-9.270510e-03	3.850000e-01	2.853170e-02
-9.270510e-03	3.800000e-01	2.853170e-02
-9.270510e-03	3.750000e-01	2.853170e-02
-9.270510e-03	3.700000e-01	2.853170e-02
-9.270510e-03	3.650000e-01	2.853170e-02
-9.270510e-03	3.600000e-01	2.853170e-02
-9.270510e-03	3.550000e-01	2.853170e-02
-9.270510e-03	3.500000e-01	2.853170e-02
-9.270510e-03	3.450000e-01	2.853170e-02
-9.270510e-03	3.400000e-01	2.853170e-02
-9.270510e-03	3.350000e-01	2.853170e-02
-9.270510e-03	3.300000e-01	2.853170e-02
-9.270510e-03	3.250000e-01	2.853170e-02
-9.270510e-03	3.200000e-01	2.853170e-02
-9.270510e-03	3.150000e-01	2.853170e-02
-9.270510e-03	3.100000e-01	2.853170e-02
-1.361971e-02	5.950000e-01	2.673020e-02
-1.361971e-02	5.900000e-01	2.673020e-02
-1.361971e-02	5.850000e-01	2.673020e-02
-1.361971e-02	5.800000e-01	2.673020e-02
-1.361971e-02	5.750000e-01	2.673020e-02
-1.361971e-02	5.700000e-01	2.673020e-02
-1.361971e-02	5.650000e-01	2.673020e-02
-1.361971e-02	5.600000e-01	2.673020e-02
-1.361971e-02	5.550000e-01	2.673020e-02
-1.361971e-02	5.500000e-01	2.673020e-02
-1.361971e-02	5.450000e-01	2.673020e-02
-1.361971e-02	5.400000e-01	2.673020e-02
-1.361971e-02	5.350000e-01	2.673020e-02
-1.361971e-02	5.300000e-01	2.673020e-02
-1.361971e-02	5.250000e-01	2.673020e-02
-1.361971e-02	5.200000e-01	2.673020e-02
-1.361971e-02	5.150000e-01	2.673020e-02
-1.361971e-02	5.100000e-01	2.673020e-02
-1.361971e-02	5.050000e-01	2.673020e-02
-1.361971e-02	5.000000e-01	2.673020e-02
-1.361971e-02	4.950000e-01	2.673020e-02
-1.361971e-02	4.900000e-01	2.673020e-02
-1.361971e-02	4.850000e-01	2.673020e-02
-1.361971e-02	4.800000e-01	2.673020e-02
-1.361971e-02	4.750000e-01	2.673020e-02
-1.361971e-02	4.700000e-01	2.673020e-02
-1.361971e-02	4.650000e-01	2.673020e-02
-1.361971e-02	4.600000e-01	2.673020e-02
-1.361971e-02	4.550000e-01	2.673020e-02
-1.361971e-02	4.500000e-01	2.673020e-02
-1.361971e-02	4.450000e-01	2.673020e-02
-1.361971e-02	4.400000e-01	2.673020e-02
-1.361971e-02	4.350000e-01	2.673020e-02
-1.361971e-02	4.300000e-01	2.673020e-02
-1.361971e-02	4.250000e-01	2.673020e-02
-1.361971e-02	4.200000e-01	2.673020e-02
-1.361971e-02	4.150000e-01	2.673020e-02
-1.361971e-02	4.100000e-01	2.673020e-02
-1.361971e-02	4.050000e-01	2.673020e-02
-1.361971e-02	4.000000e-01	2.673020e-02
-1.361971e-02	3.950000e-01	2.673020e-02
-1.361971e-02	3.900000e-01	2.673020e-02
-1.361971e-02	3.850000e-01	2.673020e-02
-1.361971e-02	3.800000e-01	2.673020e-02
-1.361971e-02	3.750000e-01	2.673020e-02
-1.361971e-02	3.700000e-01	2.673020e-02
-1.361971e-02	3.650000e-01	2.673020e-02
-1.361971e-02	3.600000e-01	2.673020e-02
-1.361971e-02	3.550000e-01	2.673020e-02
-1.361971e-02	3.500000e-01	2.673020e-02
-1.361971e-02	3.450000e-01	2.673020e-02
-1.361971e-02	3.400000e-01	2.673020e-02
-1.361971e-02	3.350000e-01	2.673020e-02
-1.361971e-02	3.300000e-01	2.673020e-02
-1.361971e-02	3.250000e-01	2.673020e-02
-1.361971e-02	3.200000e-01	2.673020e-02
-1.361971e-02	3.150000e-01	2.673020e-02
-1.361971e-02	3.100000e-01	2.673020e-02
-1.763356e-02	5.950000e-01	2.427051e-02
-1.763356e-02	5.900000e-01	2.427051e-02
-1.763356e-02	5.850000e-01	2.427051e-02
-1.763356e-02	5.800000e-01	2.427051e-02
-1.763356e-02	5.750000e-01	2.427051e-02
-1.763356e-02	5.700000e-01	2.427051e-02
-1.763356e-02	5.650000e-01	2.427051e-02
-1.763356e-02	5.600000e-01	2.427051e-02
-1.763356e-02	5.550000e-01	2.427051e-02
-1.763356e-02	5.500000e-01	2.427051e-02
-1.763356e-02	5.450000e-01	2.427051e-02
-1.763356e-02	5.400000e-01	2.427051e-02
-1.763356e-02	5.350000e-01	2.427051e-02
-1.763356e-02	5.300000e-01	2.427051e-02
-1.763356e-02	5.250000e-01	2.427051e-02
-1.763356e-02	5.200000e-01	2.427051e-02
-1.763356e-02	5.150000e-01	2.427051e-02
-1.763356e-02	5.100000e-01	2.427051e-02
-1.763356e-02	5.050000e-01	2.427051e-02
-1.763356e-02	5.000000e-01	2.427051e-02
-1.763356e-02	4.950000e-01	2.427051e-02
-1.763356e-02	4.900000e-01	2.427051e-02
-1.763356e-02	4.850000e-01	2.427051e-02
-1.763356e-02	4.800000e-01	2.427051e-02
-1.763356e-02	4.750000e-01	2.427051e-02
-1.763356e-02	4.700000e-01	2.427051e-02
-1.763356e-02	4.650000e-01	2.427051e-02
-1.763356e-02	4.600000e-01	2.427051e-02
-1.763356e-02	4.550000e-01	2.427051e-02
-1.763356e-02	4.500000e-01	2.427051e-02
-1.763356e-02	4.450000e-01	2.427051e-02
-1.763356e-02	4.400000e-01	2.427051e-02
-1.763356e-02	4.350000e-01	2.427051e-02
-1.763356e-02	4.300000e-01	2.427051e-02
-1.763356e-02	4.250000e-01	2.427051e-02
-1.763356e-02	4.200000e-01	2.427051e-02
-1.763356e-02	4.150000e-01	2.427051e-02
-1.763356e-02	4.100000e-01	2.427051e-02
-1.763356e-02	4.050000e-01	2.427051e-02
-1.763356e-02	4.000000e-01	2.427051e-02
-1.763356e-02	3.950000e-01	2.427051e-02
-1.763356e-02	3.900000e-01	2.427051e-02
-1.763356e-02	3.850000e-01	2.427051e-02
-1.763356e-02	3.800000e-01	2.427051e-02
-1.763356e-02	3.750000e-01	2.427051e-02
-1.763356e-02	3.700000e-01	2.427051e-02
-1.763356e-02	3.650000e-01	2.427051e-02
-1.763356e-02	3.600000e-01	2.427051e-02
-1.763356e-02	3.550000e-01	2.427051e-02
-1.763356e-02	3.500000e-01	2.427051e-02
-1.763356e-02	3.450000e-01	2.427051e-02
-1.763356e-02	3.400000e-01	2.427051e-02
-1.763356e-02	3.350000e-01	2.427051e-02
-1.763356e-02	3.300000e-01	2.427051e-02
-1.763356e-02	3.250000e-01	2.427051e-02
-1.763356e-02	3.200000e-01	2.427051e-02
-1.763356e-02	3.150000e-01	2.427051e-02
-1.763356e-02	3.100000e-01	2.427051e-02
-2.121320e-02	5.950000e-01	2.121320e-02
-2.121320e-02	5.900000e-01	2.121320e-02
-2.121320e-02	5.850000e-01	2.121320e-02
-2.121320e-02	5.800000e-01	2.121320e-02
-2.121320e-02	5.750000e-01	2.121320e-02
-2.121320e-02	5.700000e-01	2.121320e-02
-2.121320e-02	5.650000e-01	2.121320e-02
-2.121320e-02	5.600000e-01	2.121320e-02
-2.121320e-02	5.550000e-01	2.121320e-02
-2.121320e-02	5.500000e-01	2.121320e-02
-2.121320e-02	5.450000e-01	2.121320e-02
-2.121320e-02	5.400000e-01	2.121320e-02
-2.121320e-02	5.350000e-01	2.121320e-02
-2.121320e-02	5.300000e-01	2.121320e-02
-2.121320e-02	5.250000e-01	2.121320e-02
-2.121320e-02	5.200000e-01	2.121320e-02
-2.121320e-02	5.150000e-01	2.121320e-02
-2.121320e-02	5.100000e-01	2.121320e-02
-2.121320e-02	5.050000e-01	2.121320e-02
-2.121320e-02	5.000000e-01	2.121320e-02
-2.121320e-02	4.950000e-01	2.121320e-02
-2.121320e-02	4.900000e-01	2.121320e-02
-2.121320e-02	4.850000e-01	2.121320e-02
-2.121320e-02	4.800000e-01	2.121320e-02
-2.121320e-02	4.750000e-01	2.121320e-02
-2.121320e-02	4.700000e-01	2.121320e-02
-2.121320e-02	4.650000e-01	2.121320e-02
-2.121320e-02	4.600000e-01	2.121320e-02
-2.121320e-02	4.550000e-01	2.121320e-02
-2.121320e-02	4.500000e-01	2.121320e-02
-2.121320e-02	4.450000e-01	2.121320e-02
-2.121320e-02	4.400000e-01	2.121320e-02
-2.121320e-02	4.350000e-01	2.121320e-02
-2.121320e-02	4.300000e-01	2.121320e-02
-2.121320e-02	4.250000e-01	2.121320e-02
-2.121320e-02	4.200000e-01	2.121320e-02
-2.121320e-02	4.150000e-01	2.121320e-02
-2.121320e-02	4.100000e-01	2.121320e-02
-2.121320e-02	4.050000e-01	2.121320e-02
-2.121320e-02	4.000000e-01	2.121320e-02
-2.121320e-02	3.950000e-01	2.121320e-02
-2.121320e-02	3.900000e-01	2.121320e-02
-2.121320e-02	3.850000e-01	2.121320e-02
-2.121320e-02	3.800000e-01	2.121320e-02
-2.121320e-02	3.750000e-01	2.121320e-02
-2.121320e-02	3.700000e-01	2.121320e-02
-2.121320e-02	3.650000e-01	2.121320e-02
-2.121320e-02	3.600000e-01	2.121320e-02
-2.121320e-02	3.550000e-01	2.121320e-02
-2.121320e-02	3.500000e-01	2.121320e-02
-2.121320e-02	3.450000e-01	2.121320e-02
-2.121320e-02	3.400000e-01	2.121320e-02
-2.121320e-02	3.350000e-01	2.121320e-02
-2.121320e-02	3.300000e-01	2.121320e-02
-2.121320e-02	3.250000e-01	2.121320e-02
-2.121320e-02	3.200000e-01	2.121320e-02
-2.121320e-02	3.150000e-01	2.121320e-02
-2.121320e-02	3.100000e-01	2.121320e-02
-2.427051e-02	5.950000e-01	1.763356e-02
-2.427051e-02	5.900000e-01	1.763356e-02
-2.427051e-02	5.850000e-01	1.763356e-02
-2.427051e-02	5.800000e-01	1.763356e-02
-2.427051e-02	5.750000e-01	1.763356e-02
-2.427051e-02	5.700000e-01	1.763356e-02
-2.427051e-02	5.650000e-01	1.763356e-02
-2.427051e-02	5.600000e-01	1.763356e-02
-2.427051e-02	5.550000e-01	1.763356e-02
-2.427051e-02	5.500000e-01	1.763356e-02
-2.427051e-02	5.450000e-01	1.763356e-02
-2.427051e-02	5.400000e-01	1.763356e-02
-2.427051e-02	5.350000e-01	1.763356e-02
-2.427051e-02	5.300000e-01	1.763356e-02
-2.427051e-02	5.250000e-01	1.763356e-02
-2.427051e-02	5.200000e-01	1.763356e-02
-2.427051e-02	5.150000e-01	1.763356e-02
-2.427051e-02	5.100000e-01	1.763356e-02
-2.427051e-02	5.050000e-01	1.763356e-02
-2.427051e-02	5.000000e-01	1.763356e-02
-2.427051e-02	4.950000e-01	1.763356e-02
-2.427051e-02	4.900000e-01	1.763356e-02
-2.427051e-02	4.850000e-01	1.763356e-02
-2.427051e-02	4.800000e-01	1.763356e-02
-2.427051e-02	4.750000e-01	1.763356e-02
-2.427051e-02	4.700000e-01	1.763356e-02
-2.427051e-02	4.650000e-01	1.763356e-02
-2.427051e-02	4.600000e-01	1.763356e-02
-2.427051e-02	4.550000e-01	1.763356e-02
-2.427051e-02	4.500000e-01	1.763356e-02
-2.427051e-02	4.450000e-01	1.763356e-02
-2.427051e-02	4.400000e-01	1.763356e-02
-2.427051e-02	4.350000e-01	1.763356e-02
-2.427051e-02	4.300000e-01	1.763356e-02
-2.427051e-02	4.250000e-01	1.763356e-02
-2.427051e-02	4.200000e-01	1.763356e-02
-2.427051e-02	4.150000e-01	1.763356e-02
-2.427051e-02	4.100000e-01	1.763356e-02
-2.427051e-02	4.050000e-01	1.763356e-02
-2.427051e-02	4.000000e-01	1.763356e-02
-2.427051e-02	3.950000e-01	1.763356e-02
-2.427051e-02	3.900000e-01	1.763356e-02
-2.427051e-02	3.850000e-01	1.763356e-02
-2.427051e-02	3.800000e-01	1.763356e-02
-2.427051e-02	3.750000e-01	1.763356e-02
-2.427051e-02	3.700000e-01	1.763356e-02
-2.427051e-02	3.650000e-01	1.763356e-02
-2.427051e-02	3.600000e-01	1.763356e-02
-2.427051e-02	3.550000e-01	1.763356e-02
-2.427051e-02	3.500000e-01	1.763356e-02
-2.427051e-02	3.450000e-01	1.763356e-02
-2.427051e-02	3.400000e-01	1.763356e-02
-2.427051e-02	3.350000e-01	1.763356e-02
-2.427051e-02	3.300000e-01	1.763356e-02
-2.427051e-02	3.250000e-01	1.763356e-02
-2.427051e-02	3.200000e-01	1.763356e-02
-2.427051e-02	3.150000e-01	1.763356e-02
-2.427051e-02	3.100000e-01	1.763356e-02
-2.673020e-02	5.950000e-01	1.361971e-02
-2.673020e-02	5.900000e-01	1.361971e-02
-2.673020e-02	5.850000e-01	1.361971e-02
-2.673020e-02	5.800000e-01	1.361971e-02
-2.673020e-02	5.750000e-01	1.361971e-02
-2.673020e-02	5.700000e-01	1.361971e-02
-2.673020e-02	5.650000e-01	1.361971e-02
-2.673020e-02	5.600000e-01	1.361971e-02
-2.673020e-02	5.550000e-01	1.361971e-02
-2.673020e-02	5.500000e-01	1.361971e-02
-2.673020e-02	5.450000e-01	1.361971e-02
-2.673020e-02	5.400000e-01	1.361971e-02
-2.673020e-02	5.350000e-01	1.361971e-02
-2.673020e-02	5.300000e-01	1.361971e-02
-2.673020e-02	5.250000e-01	1.361971e-02
-2.673020e-02	5.200000e-01	1.361971e-02
-2.673020e-02	5.150000e-01	1.361971e-02
-2.673020e-02	5.100000e-01	1.361971e-02
-2.673020e-02	5.050000e-01	1.361971e-02
-2.673020e-02	5.000000e-01	1.361971e-02
-2.673020e-02	4.950000e-01	1.361971e-02
-2.673020e-02	4.900000e-01	1.361971e-02
-2.673020e-02	4.850000e-01	1.361971e-02
-2.673020e-02	4.800000e-01	1.361971e-02
-2.673020e-02	4.750000e-01	1.361971e-02
-2.673020e-02	4.700000e-01	1.361971e-02
-2.673020e-02	4.650000e-01	1.361971e-02
-2.673020e-02	4.600000e-01	1.361971e-02
-2.673020e-02	4.550000e-01	1.361971e-02
-2.673020e-02	4.500000e-01	1.361971e-02
-2.673020e-02	4.450000e-01	1.361971e-02
-2.673020e-02	4.400000e-01	1.361971e-02
-2.673020e-02	4.350000e-01	1.361971e-02
-2.673020e-02	4.300000e-01	1.361971e-02
-2.673020e-02	4.250000e-01	1.361971e-02
-2.673020e-02	4.200000e-01	1.361971e-02
-2.673020e-02	4.150000e-01	1.361971e-02
-2.673020e-02	4.100000e-01	1.361971e-02
-2.673020e-02	4.050000e-01	1.361971e-02
-2.673020e-02	4.000000e-01	1.361971e-02
-2.673020e-02	3.950000e-01	1.361971e-02
-2.673020e-02	3.900000e-01	1.361971e-02
-2.673020e-02	3.850000e-01	1.361971e-02
-2.673020e-02	3.800000e-01	1.361971e-02
-2.673020e-02	3.750000e-01	1.361971e-02
-2.673020e-02	3.700000e-01	1.361971e-02
-2.673020e-02	3.650000e-01	1.361971e-02
-2.673020e-02	3.600000e-01	1.361971e-02
-2.673020e-02	3.550000e-01	1.361971e-02
-2.673020e-02	3.500000e-01	1.361971e-02
-2.673020e-02	3.450000e-01	1.361971e-02
-2.673020e-02	3.400000e-01	1.361971e-02
-2.673020e-02	3.350000e-01	1.361971e-02
-2.673020e-02	3.300000e-01	1.361971e-02
-2.673020e-02	3.250000e-01	1.361971e-02
-2.673020e-02	3.200000e-01	1.361971e-02
-2.673020e-02	3.150000e-01	1.361971e-02
-2.673020e-02	3.100000e-01	1.361971e-02
-2.853170e-02	5.950000e-01	9.270510e-03
-2.853170e-02	5.900000e-01	9.270510e-03
-2.853170e-02	5.850000e-01	9.270510e-03
-2.853170e-02	5.800000e-01	9.270510e-03
-2.853170e-02	5.750000e-01	9.270510e-03
-2.853170e-02	5.700000e-01	9.270510e-03
-2.853170e-02	5.650000e-01	9.270510e-03
-2.853170e-02	5.600000e-01	9.270510e-03
-2.853170e-02	5.550000e-01	9.270510e-03
-2.853170e-02	5.500000e-01	9.270510e-03
-2.853170e-02	5.450000e-01	9.270510e-03
-2.853170e-02	5.400000e-01	9.270510e-03
-2.853170e-02	5.350000e-01	9.270510e-03
-2.853170e-02	5.300000e-01	9.270510e-03
-2.853170e-02	5.250000e-01	9.270510e-03
-2.853170e-02	5.200000e-01	9.270510e-03
-2.853170e-02	5.150000e-01	9.270510e-03
-2.853170e-02	5.100000e-01	9.270510e-03
-2.853170e-02	5.050000e-01	9.270510e-03
-2.853170e-02	5.000000e-01	9.270510e-03
-2.853170e-02	4.950000e-01	9.270510e-03
-2.853170e-02	4.900000e-01	9.270510e-03
-2.853170e-02	4.850000e-01	9.270510e-03
-2.853170e-02	4.800000e-01	9.270510e-03
-2.853170e-02	4.750000e-01	9.270510e-03
-2.853170e-02	4.700000e-01	9.270510e-03
-2.853170e-02	4.650000e-01	9.270510e-03
-2.853170e-02	4.600000e-01	9.270510e-03
-2.853170e-02	4.550000e-01	9.270510e-03
-2.853170e-02	4.500000e-01	9.270510e-03
-2.853170e-02	4.450000e-01	9.270510e-03
-2.853170e-02	4.400000e-01	9.270510e-03
-2.853170e-02	4.350000e-01	9.270510e-03
-2.853170e-02	4.300000e-01	9.270510e-03
-2.853170e-02	4.250000e-01	9.270510e-03
-2.853170e-02	4.200000e-01	9.270510e-03
-2.853170e-02	4.150000e-01	9.270510e-03
-2.853170e-02	4.100000e-01	9.270510e-03
-2.853170e-02	4.050000e-01	9.270510e-03
-2.853170e-02	4.000000e-01	9.270510e-03
-2.853170e-02	3.950000e-01	9.270510e-03
-2.853170e-02	3.900000e-01	9.270510e-03
-2.853170e-02	3.850000e-01	9.270510e-03
-2.853170e-02	3.800000e-01	9.270510e-03
-2.853170e-02	3.750000e-01	9.270510e-03
-2.853170e-02	3.700000e-01	9.270510e-03
-2.853170e-02	3.650000e-01	9.270510e-03
-2.853170e-02	3.600000e-01	9.270510e-03
-2.853170e-02	3.550000e-01	9.270510e-03
-2.853170e-02	3.500000e-01	9.270510e-03
-2.853170e-02	3.450000e-01	9.270510e-03
-2.853170e-02	3.400000e-01	9.270510e-03
-2.853170e-02	3.350000e-01	9.270510e-03
-2.853170e-02	3.300000e-01	9.270510e-03
-2.853170e-02	3.250000e-01	9.270510e-03
-2.853170e-02	3.200000e-01	9.270510e-03
-2.853170e-02	3.150000e-01	9.270510e-03
-2.853170e-02	3.100000e-01	9.270510e-03
-2.963065e-02	5.950000e-01	4.693034e-03
-2.963065e-02	5.900000e-01	4.693034e-03
-2.963065e-02	5.850000e-01	4.693034e-03
-2.963065e-02	5.800000e-01	4.693034e-03
-2.963065e-02	5.750000e-01	4.693034e-03
-2.963065e-02	5.700000e-01	4.693034e-03
-2.963065e-02	5.650000e-01	4.693034e-03
-2.963065e-02	5.600000e-01	4.693034e-03
-2.963065e-02	5.550000e-01	4.693034e-03
-2.963065e-02	5.500000e-01	4.693034e-03
-2.963065e-02	5.450000e-01	4.693034e-03
-2.963065e-02	5.400000e-01	4.693034e-03
-2.963065e-02	5.350000e-01	4.693034e-03
-2.963065e-02	5.300000e-01	4.693034e-03
-2.963065e-02	5.250000e-01	4.693034e-03
-2.963065e-02	5.200000e-01	4.693034e-03
-2.963065e-02	5.150000e-01	4.693034e-03
-2.963065e-02	5.100000e-01	4.693034e-03
-2.963065e-02	5.050000e-01	4.693034e-03
-2.963065e-02	5.000000e-01	4.693034e-03
-2.963065e-02	4.950000e-01	4.693034e-03
-2.963065e-02	4.900000e-01	4.693034e-03
-2.963065e-02	4.850000e-01	4.693034e-03
-2.963065e-02	4.800000e-01	4.693034e-03
-2.963065e-02	4.750000e-01	4.693034e-03
-2.963065e-02	4.700000e-01	4.693034e-03
-2.963065e-02	4.650000e-01	4.693034e-03
-2.963065e-02	4.600000e-01	4.693034e-03
-2.963065e-02	4.550000e-01	4.693034e-03
-2.963065e-02	4.500000e-01	4.693034e-03
-2.963065e-02	4.450000e-01	4.693034e-03
-2.963065e-02	4.400000e-01	4.693034e-03
-2.963065e-02	4.350000e-01	4.693034e-03
-2.963065e-02	4.300000e-01	4.693034e-03
-2.963065e-02	4.250000e-01	4.693034e-03
-2.963065e-02	4.200000e-01	4.693034e-03
-2.963065e-02	4.150000e-01	4.693034e-03
-2.963065e-02	4.100000e-01	4.693034e-03
-2.963065e-02	4.050000e-01	4.693034e-03
-2.963065e-02	4.000000e-01	4.693034e-03
-2.963065e-02	3.950000e-01	4.693034e-03
-2.963065e-02	3.900000e-01	4.693034e-03
-2.963065e-02	3.850000e-01	4.693034e-03
-2.963065e-02	3.800000e-01	4.693034e-03
-2.963065e-02	3.750000e-01	4.693034e-03
-2.963065e-02	3.700000e-01	4.693034e-03
-2.963065e-02	3.650000e-01	4.693034e-03
-2.963065e-02	3.600000e-01	4.693034e-03
-2.963065e-02	3.550000e-01	4.693034e-03
-2.963065e-02	3.500000e-01	4.693034e-03
-2.963065e-02	3.450000e-01	4.693034e-03
-2.963065e-02	3.400000e-01	4.693034e-03
-2.963065e-02	3.350000e-01	4.693034e-03
-2.963065e-02	3.300000e-01	4.693034e-03
-2.963065e-02	3.250000e-01	4.693034e-03
-2.963065e-02	3.200000e-01	4.693034e-03
-2.963065e-02	3.150000e-01	4.693034e-03
-2.963065e-02	3.100000e-01	4.693034e-03
4.693034e-03	0.000000e+00	2.963065e-02
9.270510e-03	0.000000e+00	2.853170e-02
1.361971e-02	0.000000e+00	2.673020e-02
1.763356e-02	0.000000e+00	2.427051e-02
2.121320e-02	0.000000e+00	2.121320e-02
2.427051e-02	0.000000e+00	1.763356e-02
2.673020e-02	0.000000e+00	1.361971e-02
2.853170e-02	0.000000e+00	9.270510e-03
2.963065e-02	0.000000e+00	4.693034e-03
4.693034e-03	2.950000e-01	2.963065e-02
9.270510e-03	2.950000e-01	2.853170e-02
1.361971e-02	2.950000e-01	2.673020e-02
1.763356e-02	2.950000e-01	2.427051e-02
2.121320e-02	2.950000e-01	2.121320e-02
2.427051e-02	2.950000e-01	1.763356e-02
2.673020e-02	2.950000e-01	1.361971e-02
2.853170e-02	2.950000e-01	9.270510e-03
2.963065e-02	2.950000e-01	4.693034e-03
2.963065e-02	2.900000e-01	4.693034e-03
2.963065e-02	2.850000e-01	4.693034e-03
2.963065e-02	2.800000e-01	4.693034e-03
2.963065e-02	2.750000e-01	4.693034e-03
2.963065e-02	2.700000e-01	4.693034e-03
2.963065e-02	2.650000e-01	4.693034e-03
2.963065e-02	2.600000e-01	4.693034e-03
2.963065e-02	2.550000e-01	4.693034e-03
2.963065e-02	2.500000e-01	4.693034e-03
2.963065e-02	2.450000e-01	4.693034e-03
2.963065e-02	2.400000e-01	4.693034e-03
2.963065e-02	2.350000e-01	4.693034e-03
2.963065e-02	2.300000e-01	4.693034e-03
2.963065e-02	2.250000e-01	4.693034e-03
2.963065e-02	2.200000e-01	4.693034e-03
2.963065e-02	2.150000e-01	4.693034e-03
2.963065e-02	2.100000e-01	4.693034e-03
2.963065e-02	2.050000e-01	4.693034e-03
2.963065e-02	2.000000e-01	4.693034e-03
2.963065e-02	1.950000e-01	4.693034e-03
2.963065e-02	1.900000e-01	4.693034e-03
2.963065e-02	1.850000e-01	4.693034e-03
2.963065e-02	1.800000e-01	4.693034e-03
2.963065e-02	1.750000e-01	4.693034e-03
2.963065e-02	1.700000e-01	4.693034e-03
2.963065e-02	1.650000e-01	4.693034e-03
2.963065e-02	1.600000e-01	4.693034e-03
2.963065e-02	1.550000e-01	4.693034e-03
2.963065e-02	1.500000e-01	4.693034e-03
2.963065e-02	1.450000e-01	4.693034e-03
2.963065e-02	1.400000e-01	4.693034e-03
2.963065e-02	1.350000e-01	4.693034e-03
2.963065e-02	1.300000e-01	4.693034e-03
2.963065e-02	1.250000e-01	4.693034e-03
2.963065e-02	1.200000e-01	4.693034e-03
2.963065e-02	1.150000e-01	4.693034e-03
2.963065e-02	1.100000e-01	4.693034e-03
2.963065e-02	1.050000e-01	4.693034e-03
2.963065e-02	1.000000e-01	4.693034e-03
2.963065e-02	9.500000e-02	4.693034e-03
2.963065e-02	9.000000e-02	4.693034e-03
2.963065e-02	8.500000e-02	4.693034e-03
2.963065e-02	8.000000e-02	4.693034e-03
2.963065e-02	7.500000e-02	4.693034e-03
2.963065e-02	7.000000e-02	4.693034e-03
2.963065e-02	6.500000e-02	4.693034e-03
2.963065e-02	6.000000e-02	4.693034e-03
2.963065e-02	5.500000e-02	4.693034e-03
2.963065e-02	5.000000e-02	4.693034e-03
2.963065e-02	4.500000e-02	4.693034e-03
2.963065e-02	4.000000e-02	4.693034e-03
2.963065e-02	3.500000e-02	4.693034e-03
2.963065e-02	3.000000e-02	4.693034e-03
2.963065e-02	2.500000e-02	4.693034e-03
2.963065e-02	2.000000e-02	4.693034e-03
2.963065e-02	1.500000e-02	4.693034e-03
2.963065e-02	1.000000e-02	4.693034e-03
2.963065e-02	5.000000e-03	4.693034e-03
2.853170e-02	2.900000e-01	9.270510e-03
2.853170e-02	2.850000e-01	9.270510e-03
2.853170e-02	2.800000e-01	9.270510e-03
2.853170e-02	2.750000e-01	9.270510e-03
2.853170e-02	2.700000e-01	9.270510e-03
2.853170e-02	2.650000e-01	9.270510e-03
2.853170e-02	2.600000e-01	9.270510e-03
2.853170e-02	2.550000e-01	9.270510e-03
2.853170e-02	2.500000e-01	9.270510e-03
2.853170e-02	2.450000e-01	9.270510e-03
2.853170e-02	2.400000e-01	9.270510e-03
2.853170e-02	2.350000e-01	9.270510e-03
2.853170e-02	2.300000e-01	9.270510e-03
2.853170e-02	2.250000e-01	9.270510e-03
2.853170e-02	2.200000e-01	9.270510e-03
2.853170e-02	2.150000e-01	9.270510e-03
2.853170e-02	2.100000e-01	9.270510e-03
2.853170e-02	2.050000e-01	9.270510e-03
2.853170e-02	2.000000e-01	9.270510e-03
2.853170e-02	1.950000e-01	9.270510e-03
2.853170e-02	1.900000e-01	9.270510e-03
2.853170e-02	1.850000e-01	9.270510e-03
2.853170e-02	1.800000e-01	9.270510e-03
2.853170e-02	1.750000e-01	9.270510e-03
2.853170e-02	1.700000e-01	9.270510e-03
2.853170e-02	1.650000e-01	9.270510e-03
2.853170e-02	1.600000e-01	9.270510e-03
2.853170e-02	1.550000e-01	9.270510e-03
2.853170e-02	1.500000e-01	9.270510e-03
2.853170e-02	1.450000e-01	9.270510e-03
2.853170e-02	1.400000e-01	9.270510e-03
2.853170e-02	1.350000e-01	9.270510e-03
2.853170e-02	1.300000e-01	9.270510e-03
2.853170e-02	1.250000e-01	9.270510e-03
2.853170e-02	1.200000e-01	9.270510e-03
2.853170e-02	1.150000e-01	9.270510e-03
2.853170e-02	1.100000e-01	9.270510e-03
2.853170e-02	1.050000e-01	9.270510e-03
2.853170e-02	1.000000e-01	9.270510e-03
2.853170e-02	9.500000e-02	9.270510e-03
2.853170e-02	9.000000e-02	9.270510e-03
2.853170e-02	8.500000e-02	9.270510e-03
2.853170e-02	8.000000e-02	9.270510e-03
2.853170e-02	7.500000e-02	9.270510e-03
2.853170e-02	7.000000e-02	9.270510e-03
2.853170e-02	6.500000e-02	9.270510e-03
2.853170e-02	6.000000e-02	9.270510e-03
2.853170e-02	5.500000e-02	9.270510e-03
2.853170e-02	5.000000e-02	9.270510e-03
2.853170e-02	4.500000e-02	9.270510e-03
2.853170e-02	4.000000e-02	9.270510e-03
2.853170e-02	3.500000e-02	9.270510e-03
2.853170e-02	3.000000e-02	9.270510e-03
2.853170e-02	2.500000e-02	9.270510e-03
2.853170e-02	2.000000e-02	9.270510e-03
2.853170e-02	1.500000e-02	9.270510e-03
2.853170e-02	1.000000e-02	9.270510e-03
2.853170e-02	5.000000e-03	9.270510e-03
2.673020e-02	2.900000e-01	1.361971e-02
2.673020e-02	2.850000e-01	1.361971e-02
2.673020e-02	2.800000e-01	1.361971e-02
2.673020e-02	2.750000e-01	1.361971e-02
2.673020e-02	2.700000e-01	1.361971e-02
2.673020e-02	2.650000e-01	1.361971e-02
2.673020e-02	2.600000e-01	1.361971e-02
2.673020e-02	2.550000e-01	1.361971e-02
2.673020e-02	2.500000e-01	1.361971e-02
2.673020e-02	2.450000e-01	1.361971e-02
2.673020e-02	2.400000e-01	1.361971e-02
2.673020e-02	2.350000e-01	1.361971e-02
2.673020e-02	2.300000e-01	1.361971e-02
2.673020e-02	2.250000e-01	1.361971e-02
2.673020e-02	2.200000e-01	1.361971e-02
2.673020e-02	2.150000e-01	1.361971e-02
2.673020e-02	2.100000e-01	1.361971e-02
2.673020e-02	2.050000e-01	1.361971e-02
2.673020e-02	2.000000e-01	1.361971e-02
2.673020e-02	1.950000e-01	1.361971e-02
2.673020e-02	1.900000e-01	1.361971e-02
2.673020e-02	1.850000e-01	1.361971e-02
2.673020e-02	1.800000e-01	1.361971e-02
2.673020e-02	1.750000e-01	1.361971e-02
2.673020e-02	1.700000e-01	1.361971e-02
2.673020e-02	1.650000e-01	1.361971e-02
2.673020e-02	1.600000e-01	1.361971e-02
2.673020e-02	1.550000e-01	1.361971e-02
2.673020e-02	1.500000e-01	1.361971e-02
2.673020e-02	1.450000e-01	1.361971e-02
2.673020e-02	1.400000e-01	1.361971e-02
2.673020e-02	1.350000e-01	1.361971e-02
2.673020e-02	1.300000e-01	1.361971e-02
2.673020e-02	1.250000e-01	1.361971e-02
2.673020e-02	1.200000e-01	1.361971e-02
2.673020e-02	1.150000e-01	1.361971e-02
2.673020e-02	1.100000e-01	1.361971e-02
2.673020e-02	1.050000e-01	1.361971e-02
2.673020e-02	1.000000e-01	1.361971e-02
2.673020e-02	9.500000e-02	1.361971e-02
2.673020e-02	9.000000e-02	1.361971e-02
2.673020e-02	8.500000e-02	1.361971e-02
2.673020e-02	8.000000e-02	1.361971e-02
2.673020e-02	7.500000e-02	1.361971e-02
2.673020e-02	7.000000e-02	1.361971e-02
2.673020e-02	6.500000e-02	1.361971e-02
2.673020e-02	6.000000e-02	1.361971e-02
2.673020e-02	5.500000e-02	1.361971e-02
2.673020e-02	5.000000e-02	1.361971e-02
2.673020e-02	4.500000e-02	1.361971e-02
2.673020e-02	4.000000e-02	1.361971e-02
2.673020e-02	3.500000e-02	1.361971e-02
2.673020e-02	3.000000e-02	1.361971e-02
2.673020e-02	2.500000e-02	1.361971e-02
2.673020e-02	2.000000e-02	1.361971e-02
2.673020e-02	1.500000e-02	1.361971e-02
2.673020e-02	1.000000e-02	1.361971e-02
2.673020e-02	5.000000e-03	1.361971e-02
2.427051e-02	2.900000e-01	1.763356e-02
2.427051e-02	2.850000e-01	1.763356e-02
2.427051e-02	2.800000e-01	1.763356e-02
2.427051e-02	2.750000e-01	1.763356e-02
2.427051e-02	2.700000e-01	1.763356e-02
2.427051e-02	2.650000e-01	1.763356e-02
2.427051e-02	2.600000e-01	1.763356e-02
2.427051e-02	2.550000e-01	1.763356e-02
2.427051e-02	2.500000e-01	1.763356e-02
2.427051e-02	2.450000e-01	1.763356e-02
2.427051e-02	2.400000e-01	1.763356e-02
2.427051e-02	2.350000e-01	1.763356e-02
2.427051e-02	2.300000e-01	1.763356e-02
2.427051e-02	2.250000e-01	1.763356e-02
2.427051e-02	2.200000e-01	1.763356e-02
2.427051e-02	2.150000e-01	1.763356e-02
2.427051e-02	2.100000e-01	1.763356e-02
2.427051e-02	2.050000e-01	1.763356e-02
2.427051e-02	2.000000e-01	1.763356e-02
2.427051e-02	1.950000e-01	1.763356e-02
2.427051e-02	1.900000e-01	1.763356e-02
2.427051e-02	1.850000e-01	1.763356e-02
2.427051e-02	1.800000e-01	1.763356e-02
2.427051e-02	1.750000e-01	1.763356e-02
2.427051e-02	1.700000e-01	1.763356e-02
2.427051e-02	1.650000e-01	1.763356e-02
2.427051e-02	1.600000e-01	1.763356e-02
2.427051e-02	1.550000e-01	1.763356e-02
2.427051e-02	1.500000e-01	1.763356e-02
2.427051e-02	1.450000e-01	1.763356e-02
2.427051e-02	1.400000e-01	1.763356e-02
2.427051e-02	1.350000e-01	1.763356e-02
2.427051e-02	1.300000e-01	1.763356e-02
2.427051e-02	1.250000e-01	1.763356e-02
2.427051e-02	1.200000e-01	1.763356e-02
2.427051e-02	1.150000e-01	1.763356e-02
2.427051e-02	1.100000e-01	1.763356e-02
2.427051e-02	1.050000e-01	1.763356e-02
2.427051e-02	1.000000e-01	1.763356e-02
2.427051e-02	9.500000e-02	1.763356e-02
2.427051e-02	9.000000e-02	1.763356e-02
2.427051e-02	8.500000e-02	1.763356e-02
2.427051e-02	8.000000e-02	1.763356e-02
2.427051e-02	7.500000e-02	1.763356e-02
2.427051e-02	7.000000e-02	1.763356e-02
2.427051e-02	6.500000e-02	1.763356e-02
2.427051e-02	6.000000e-02	1.763356e-02
2.427051e-02	5.500000e-02	1.763356e-02
2.427051e-02	5.000000e-02	1.763356e-02
2.427051e-02	4.500000e-02	1.763356e-02
2.427051e-02	4.000000e-02	1.763356e-02
2.427051e-02	3.500000e-02	1.763356e-02
2.427051e-02	3.000000e-02	1.763356e-02
2.427051e-02	2.500000e-02	1.763356e-02
2.427051e-02	2.000000e-02	1.763356e-02
2.427051e-02	1.500000e-02	1.763356e-02
2.427051e-02	1.000000e-02	1.763356e-02
2.427051e-02	5.000000e-03	1.763356e-02
2.121320e-02	2.900000e-01	2.121320e-02
2.121320e-02	2.850000e-01	2.121320e-02
2.121320e-02	2.800000e-01	2.121320e-02
2.121320e-02	2.750000e-01	2.121320e-02
2.121320e-02	2.700000e-01	2.121320e-02
2.121320e-02	2.650000e-01	2.121320e-02
2.121320e-02	2.600000e-01	2.121320e-02
2.121320e-02	2.550000e-01	2.121320e-02
2.121320e-02	2.500000e-01	2.121320e-02
2.121320e-02	2.450000e-01	2.121320e-02
2.121320e-02	2.400000e-01	2.121320e-02
2.121320e-02	2.350000e-01	2.121320e-02
2.121320e-02	2.300000e-01	2.121320e-02
2.121320e-02	2.250000e-01	2.121320e-02
2.121320e-02	2.200000e-01	2.121320e-02
2.121320e-02	2.150000e-01	2.121320e-02
2.121320e-02	2.100000e-01	2.121320e-02
2.121320e-02	2.050000e-01	2.121320e-02
2.121320e-02	2.000000e-01	2.121320e-02
2.121320e-02	1.950000e-01	2.121320e-02
2.121320e-02	1.900000e-01	2.121320e-02
2.121320e-02	1.850000e-01	2.121320e-02
2.121320e-02	1.800000e-01	2.121320e-02
2.121320e-02	1.750000e-01	2.121320e-02
2.121320e-02	1.700000e-01	2.121320e-02
2.121320e-02	1.650000e-01	2.121320e-02
2.121320e-02	1.600000e-01	2.121320e-02
2.121320e-02	1.550000e-01	2.121320e-02
2.121320e-02	1.500000e-01	2.121320e-02
2.121320e-02	1.450000e-01	2.121320e-02
2.121320e-02	1.400000e-01	2.121320e-02
2.121320e-02	1.350000e-01	2.121320e-02
2.121320e-02	1.300000e-01	2.121320e-02
2.121320e-02	1.250000e-01	2.121320e-02
2.121320e-02	1.200000e-01	2.121320e-02
2.121320e-02	1.150000e-01	2.121320e-02
2.121320e-02	1.100000e-01	2.121320e-02
2.121320e-02	1.050000e-01	2.121320e-02
2.121320e-02	1.000000e-01	2.121320e-02
2.121320e-02	9.500000e-02	2.121320e-02
2.121320e-02	9.000000e-02	2.121320e-02
2.121320e-02	8.500000e-02	2.121320e-02
2.121320e-02	8.000000e-02	2.121320e-02
2.121320e-02	7.500000e-02	2.121320e-02
2.121320e-02	7.000000e-02	2.121320e-02
2.121320e-02	6.500000e-02	2.121320e-02
2.121320e-02	6.000000e-02	2.121320e-02
2.121320e-02	5.500000e-02	2.121320e-02
2.121320e-02	5.000000e-02	2.121320e-02
2.121320e-02	4.500000e-02	2.121320e-02
2.121320e-02	4.000000e-02	2.121320e-02
2.121320e-02	3.500000e-02	2.121320e-02
2.121320e-02	3.000000e-02	2.121320e-02
2.121320e-02	2.500000e-02	2.121320e-02
2.121320e-02	2.000000e-02	2.121320e-02
2.121320e-02	1.500000e-02	2.121320e-02
2.121320e-02	1.000000e-02	2.121320e-02
2.121320e-02	5.000000e-03	2.121320e-02
1.763356e-02	2.900000e-01	2.427051e-02
1.763356e-02	2.850000e-01	2.427051e-02
1.763356e-02	2.800000e-01	2.427051e-02
1.763356e-02	2.750000e-01	2.427051e-02
1.763356e-02	2.700000e-01	2.427051e-02
1.763356e-02	2.650000e-01	2.427051e-02
1.763356e-02	2.600000e-01	2.427051e-02
1.763356e-02	2.550000e-01	2.427051e-02
1.763356e-02	2.500000e-01	2.427051e-02
1.763356e-02	2.450000e-01	2.427051e-02
1.763356e-02	2.400000e-01	2.427051e-02
1.763356e-02	2.350000e-01	2.427051e-02
1.763356e-02	2.300000e-01	2.427051e-02
1.763356e-02	2.250000e-01	2.427051e-02
1.763356e-02	2.200000e-01	2.427051e-02
1.763356e-02	2.150000e-01	2.427051e-02
1.763356e-02	2.100000e-01	2.427051e-02
1.763356e-02	2.050000e-01	2.427051e-02
1.763356e-02	2.000000e-01	2.427051e-02
1.763356e-02	1.950000e-01	2.427051e-02
1.763356e-02	1.900000e-01	2.427051e-02
1.763356e-02	1.850000e-01	2.427051e-02
1.763356e-02	1.800000e-01	2.427051e-02
1.763356e-02	1.750000e-01	2.427051e-02
1.763356e-02	1.700000e-01	2.427051e-02
1.763356e-02	1.650000e-01	2.427051e-02
1.763356e-02	1.600000e-01	2.427051e-02
1.763356e-02	1.550000e-01	2.427051e-02
1.763356e-02	1.500000e-01	2.427051e-02
1.763356e-02	1.450000e-01	2.427051e-02
1.763356e-02	1.400000e-01	2.427051e-02
1.763356e-02	1.350000e-01	2.427051e-02
1.763356e-02	1.300000e-01	2.427051e-02
1.763356e-02	1.250000e-01	2.427051e-02
1.763356e-02	1.200000e-01	2.427051e-02
1.763356e-02	1.150000e-01	2.427051e-02
1.763356e-02	1.100000e-01	2.427051e-02
1.763356e-02	1.050000e-01	2.427051e-02
1.763356e-02	1.000000e-01	2.427051e-02
1.763356e-02	9.500000e-02	2.427051e-02
1.763356e-02	9.000000e-02	2.427051e-02
1.763356e-02	8.500000e-02	2.427051e-02
1.763356e-02	8.000000e-02	2.427051e-02
1.763356e-02	7.500000e-02	2.427051e-02
1.763356e-02	7.000000e-02	2.427051e-02
1.763356e-02	6.500000e-02	2.427051e-02
1.763356e-02	6.000000e-02	2.427051e-02
1.763356e-02	5.500000e-02	2.427051e-02
1.763356e-02	5.000000e-02	2.427051e-02
1.763356e-02	4.500000e-02	2.427051e-02
1.763356e-02	4.000000e-02	2.427051e-02
1.763356e-02	3.500000e-02	2.427051e-02
1.763356e-02	3.000000e-02	2.427051e-02
1.763356e-02	2.500000e-02	2.427051e-02
1.763356e-02	2.000000e-02	2.427051e-02
1.763356e-02	1.500000e-02	2.427051e-02
1.763356e-02	1.000000e-02	2.427051e-02
1.763356e-02	5.000000e-03	2.427051e-02
1.361971e-02	2.900000e-01	2.673020e-02
1.361971e-02	2.850000e-01	2.673020e-02
1.361971e-02	2.800000e-01	2.673020e-02
1.361971e-02	2.750000e-01	2.673020e-02
1.361971e-02	2.700000e-01	2.673020e-02
1.361971e-02	2.650000e-01	2.673020e-02
1.361971e-02	2.600000e-01	2.673020e-02
1.361971e-02	2.550000e-01	2.673020e-02
1.361971e-02	2.500000e-01	2.673020e-02
1.361971e-02	2.450000e-01	2.673020e-02
1.361971e-02	2.400000e-01	2.673020e-02
1.361971e-02	2.350000e-01	2.673020e-02
1.361971e-02	2.300000e-01	2.673020e-02
1.361971e-02	2.250000e-01	2.673020e-02
1.361971e-02	2.200000e-01	2.673020e-02
1.361971e-02	2.150000e-01	2.673020e-02
1.361971e-02	2.100000e-01	2.673020e-02
1.361971e-02	2.050000e-01	2.673020e-02
1.361971e-02	2.000000e-01	2.673020e-02
1.361971e-02	1.950000e-01	2.673020e-02
1.361971e-02	1.900000e-01	2.673020e-02
1.361971e-02	1.850000e-01	2.673020e-02
1.361971e-02	1.800000e-01	2.673020e-02
1.361971e-02	1.750000e-01	2.673020e-02
1.361971e-02	1.700000e-01	2.673020e-02
1.361971e-02	1.650000e-01	2.673020e-02
1.361971e-02	1.600000e-01	2.673020e-02
1.361971e-02	1.550000e-01	2.673020e-02
1.361971e-02	1.500000e-01	2.673020e-02
1.361971e-02	1.450000e-01	2.673020e-02
1.361971e-02	1.400000e-01	2.673020e-02
1.361971e-02	1.350000e-01	2.673020e-02
1.361971e-02	1.300000e-01	2.673020e-02
1.361971e-02	1.250000e-01	2.673020e-02
1.361971e-02	1.200000e-01	2.673020e-02
1.361971e-02	1.150000e-01	2.673020e-02
1.361971e-02	1.100000e-01	2.673020e-02
1.361971e-02	1.050000e-01	2.673020e-02
1.361971e-02	1.000000e-01	2.673020e-02
1.361971e-02	9.500000e-02	2.673020e-02
1.361971e-02	9.000000e-02	2.673020e-02
1.361971e-02	8.500000e-02	2.673020e-02
1.361971e-02	8.000000e-02	2.673020e-02
1.361971e-02	7.500000e-02	2.673020e-02
1.361971e-02	7.000000e-02	2.673020e-02
1.361971e-02	6.500000e-02	2.673020e-02
1.361971e-02	6.000000e-02	2.673020e-02
1.361971e-02	5.500000e-02	2.673020e-02
1.361971e-02	5.000000e-02	2.673020e-02
1.361971e-02	4.500000e-02	2.673020e-02
1.361971e-02	4.000000e-02	2.673020e-02
1.361971e-02	3.500000e-02	2.673020e-02
1.361971e-02	3.000000e-02	2.673020e-02
1.361971e-02	2.500000e-02	2.673020e-02
1.361971e-02	2.000000e-02	2.673020e-02
1.361971e-02	1.500000e-02	2.673020e-02
1.361971e-02	1.000000e-02	2.673020e-02
1.361971e-02	5.000000e-03	2.673020e-02
9.270510e-03	2.900000e-01	2.853170e-02
9.270510e-03	2.850000e-01	2.853170e-02
9.270510e-03	2.800000e-01	2.853170e-02
9.270510e-03	2.750000e-01	2.853170e-02
9.270510e-03	2.700000e-01	2.853170e-02
9.270510e-03	2.650000e-01	2.853170e-02
9.270510e-03	2.600000e-01	2.853170e-02
9.270510e-03	2.550000e-01	2.853170e-02
9.270510e-03	2.500000e-01	2.853170e-02
9.270510e-03	2.450000e-01	2.853170e-02
9.270510e-03	2.400000e-01	2.853170e-02
9.270510e-03	2.350000e-01	2.853170e-02
9.270510e-03	2.300000e-01	2.853170e-02
9.270510e-03	2.250000e-01	2.853170e-02
9.270510e-03	2.200000e-01	2.853170e-02
9.270510e-03	2.150000e-01	2.853170e-02
9.270510e-03	2.100000e-01	2.853170e-02
9.270510e-03	2.050000e-01	2.853170e-02
9.270510e-03	2.000000e-01	2.853170e-02
9.270510e-03	1.950000e-01	2.853170e-02
9.270510e-03	1.900000e-01	2.853170e-02
9.270510e-03	1.850000e-01	2.853170e-02
9.270510e-03	1.800000e-01	2.853170e-02
9.270510e-03	1.750000e-01	2.853170e-02
9.270510e-03	1.700000e-01	2.853170e-02
9.270510e-03	1.650000e-01	2.853170e-02
9.270510e-03	1.600000e-01	2.853170e-02
9.270510e-03	1.550000e-01	2.853170e-02
9.270510e-03	1.500000e-01	2.853170e-02
9.270510e-03	1.450000e-01	2.853170e-02
9.270510e-03	1.400000e-01	2.853170e-02
9.270510e-03	1.350000e-01	2.853170e-02
9.270510e-03	1.300000e-01	2.853170e-02
9.270510e-03	1.250000e-01	2.853170e-02
9.270510e-03	1.200000e-01	2.853170e-02
9.270510e-03	1.150000e-01	2.853170e-02
9.270510e-03	1.100000e-01	2.853170e-02
9.270510e-03	1.050000e-01	2.853170e-02
9.270510e-03	1.000000e-01	2.853170e-02
9.270510e-03	9.500000e-02	2.853170e-02
9.270510e-03	9.000000e-02	2.853170e-02
9.270510e-03	8.500000e-02	2.853170e-02
9.270510e-03	8.000000e-02	2.853170e-02
9.270510e-03	7.500000e-02	2.853170e-02
9.270510e-03	7.000000e-02	2.853170e-02
9.270510e-03	6.500000e-02	2.853170e-02
9.270510e-03	6.000000e-02	2.853170e-02
9.270510e-03	5.500000e-02	2.853170e-02
9.270510e-03	5.000000e-02	2.853170e-02
9.270510e-03	4.500000e-02	2.853170e-02
9.270510e-03	4.000000e-02	2.853170e-02
9.270510e-03	3.500000e-02	2.853170e-02
9.270510e-03	3.000000e-02	2.853170e-02
9.270510e-03	2.500000e-02	2.853170e-02
9.270510e-03	2.000000e-02	2.853170e-02
9.270510e-03	1.500000e-02	2.853170e-02
9.270510e-03	1.000000e-02	2.853170e-02
9.270510e-03	5.000000e-03	2.853170e-02
4.693034e-03	2.900000e-01	2.963065e-02
4.693034e-03	2.850000e-01	2.963065e-02
4.693034e-03	2.800000e-01	2.963065e-02
4.693034e-03	2.750000e-01	2.963065e-02
4.693034e-03	2.700000e-01	2.963065e-02
4.693034e-03	2.650000e-01	2.963065e-02
4.693034e-03	2.600000e-01	2.963065e-02
4.693034e-03	2.550000e-01	2.963065e-02
4.693034e-03	2.500000e-01	2.963065e-02
4.693034e-03	2.450000e-01	2.963065e-02
4.693034e-03	2.400000e-01	2.963065e-02
4.693034e-03	2.350000e-01	2.963065e-02
4.693034e-03	2.300000e-01	2.963065e-02
4.693034e-03	2.250000e-01	2.963065e-02
4.693034e-03	2.200000e-01	2.963065e-02
4.693034e-03	2.150000e-01	2.963065e-02
4.693034e-03	2.100000e-01	2.963065e-02
4.693034e-03	2.050000e-01	2.963065e-02
4.693034e-03	2.000000e-01	2.963065e-02
4.693034e-03	1.950000e-01	2.963065e-02
4.693034e-03	1.900000e-01	2.963065e-02
4.693034e-03	1.850000e-01	2.963065e-02
4.693034e-03	1.800000e-01	2.963065e-02
4.693034e-03	1.750000e-01	2.963065e-02
4.693034e-03	1.700000e-01	2.963065e-02
4.693034e-03	1.650000e-01	2.963065e-02
4.693034e-03	1.600000e-01	2.963065e-02
4.693034e-03	1.550000e-01	2.963065e-02
4.693034e-03	1.500000e-01	2.963065e-02
4.693034e-03	1.450000e-01	2.963065e-02
4.693034e-03	1.400000e-01	2.963065e-02
4.693034e-03	1.350000e-01	2.963065e-02
4.693034e-03	1.300000e-01	2.963065e-02
4.693034e-03	1.250000e-01	2.963065e-02
4.693034e-03	1.200000e-01	2.963065e-02
4.693034e-03	1.150000e-01	2.963065e-02
4.693034e-03	1.100000e-01	2.963065e-02
4.693034e-03	1.050000e-01	2.963065e-02
4.693034e-03	1.000000e-01	2.963065e-02
4.693034e-03	9.500000e-02	2.963065e-02
4.693034e-03	9.000000e-02	2.963065e-02
4.693034e-03	8.500000e-02	2.963065e-02
4.693034e-03	8.000000e-02	2.963065e-02
4.693034e-03	7.500000e-02	2.963065e-02
4.693034e-03	7.000000e-02	2.963065e-02
4.693034e-03	6.500000e-02	2.963065e-02
4.693034e-03	6.000000e-02	2.963065e-02
4.693034e-03	5.500000e-02	2.963065e-02
4.693034e-03	5.000000e-02	2.963065e-02
4.693034e-03	4.500000e-02	2.963065e-02
4.693034e-03	4.000000e-02	2.963065e-02
4.693034e-03	3.500000e-02	2.963065e-02
4.693034e-03	3.000000e-02	2.963065e-02
4.693034e-03	2.500000e-02	2.963065e-02
4.693034e-03	2.000000e-02	2.963065e-02
4.693034e-03	1.500000e-02	2.963065e-02
4.693034e-03	1.000000e-02	2.963065e-02
4.693034e-03	5.000000e-03	2.963065e-02
4.693034e-03	3.050000e-01	2.963065e-02
9.270510e-03	3.050000e-01	2.853170e-02
1.361971e-02	3.050000e-01	2.673020e-02
1.763356e-02	3.050000e-01	2.427051e-02
2.121320e-02	3.050000e-01	2.121320e-02
2.427051e-02	3.050000e-01	1.763356e-02
2.673020e-02	3.050000e-01	1.361971e-02
2.853170e-02	3.050000e-01	9.270510e-03
2.963065e-02	3.050000e-01	4.693034e-03
2.963065e-02	3.000000e-01	4.693034e-03
2.853170e-02	3.000000e-01	9.270510e-03
2.673020e-02	3.000000e-01	1.361971e-02
2.427051e-02	3.000000e-01	1.763356e-02
2.121320e-02	3.000000e-01	2.121320e-02
1.763356e-02	3.000000e-01	2.427051e-02
1.361971e-02	3.000000e-01	2.673020e-02
9.270510e-03	3.000000e-01	2.853170e-02
4.693034e-03	3.000000e-01	2.963065e-02
4.693034e-03	6.000000e-01	2.963065e-02
9.270510e-03	6.000000e-01	2.853170e-02
1.361971e-02	6.000000e-01	2.673020e-02
1.763356e-02	6.000000e-01	2.427051e-02
2.121320e-02	6.000000e-01	2.121320e-02
2.427051e-02	6.000000e-01	1.763356e-02
2.673020e-02	6.000000e-01	1.361971e-02
2.853170e-02	6.000000e-01	9.270510e-03
2.963065e-02	6.000000e-01	4.693034e-03
2.963065e-02	5.950000e-01	4.693034e-03
2.963065e-02	5.900000e-01	4.693034e-03
2.963065e-02	5.850000e-01	4.693034e-03
2.963065e-02	5.800000e-01	4.693034e-03
2.963065e-02	5.750000e-01	4.693034e-03
2.963065e-02	5.700000e-01	4.693034e-03
2.963065e-02	5.650000e-01	4.693034e-03
2.963065e-02	5.600000e-01	4.693034e-03
2.963065e-02	5.550000e-01	4.693034e-03
2.963065e-02	5.500000e-01	4.693034e-03
2.963065e-02	5.450000e-01	4.693034e-03
2.963065e-02	5.400000e-01	4.693034e-03
2.963065e-02	5.350000e-01	4.693034e-03
2.963065e-02	5.300000e-01	4.693034e-03
2.963065e-02	5.250000e-01	4.693034e-03
2.963065e-02	5.200000e-01	4.693034e-03
2.963065e-02	5.150000e-01	4.693034e-03
2.963065e-02	5.100000e-01	4.693034e-03
2.963065e-02	5.050000e-01	4.693034e-03
2.963065e-02	5.000000e-01	4.693034e-03
2.963065e-02	4.950000e-01	4.693034e-03
2.963065e-02	4.900000e-01	4.693034e-03
2.963065e-02	4.850000e-01	4.693034e-03
2.963065e-02	4.800000e-01	4.693034e-03
2.963065e-02	4.750000e-01	4.693034e-03
2.963065e-02	4.700000e-01	4.693034e-03
2.963065e-02	4.650000e-01	4.693034e-03
2.963065e-02	4.600000e-01	4.693034e-03
2.963065e-02	4.550000e-01	4.693034e-03
2.963065e-02	4.500000e-01	4.693034e-03
2.963065e-02	4.450000e-01	4.693034e-03
2.963065e-02	4.400000e-01	4.693034e-03
2.963065e-02	4.350000e-01	4.693034e-03
2.963065e-02	4.300000e-01	4.693034e-03
2.963065e-02	4.250000e-01	4.693034e-03
2.963065e-02	4.200000e-01	4.693034e-03
2.963065e-02	4.150000e-01	4.693034e-03
2.963065e-02	4.100000e-01	4.693034e-03
2.963065e-02	4.050000e-01	4.693034e-03
2.963065e-02	4.000000e-01	4.693034e-03
2.963065e-02	3.950000e-01	4.693034e-03
2.963065e-02	3.900000e-01	4.693034e-03
2.963065e-02	3.850000e-01	4.693034e-03
2.963065e-02	3.800000e-01	4.693034e-03
2.963065e-02	3.750000e-01	4.693034e-03
2.963065e-02	3.700000e-01	4.693034e-03
2.963065e-02	3.650000e-01	4.693034e-03
2.963065e-02	3.600000e-01	4.693034e-03
2.963065e-02	3.550000e-01	4.693034e-03
2.963065e-02	3.500000e-01	4.693034e-03
2.963065e-02	3.450000e-01	4.693034e-03
2.963065e-02	3.400000e-01	4.693034e-03
2.963065e-02	3.350000e-01	4.693034e-03
2.963065e-02	3.300000e-01	4.693034e-03
2.963065e-02	3.250000e-01	4.693034e-03
2.963065e-02	3.200000e-01	4.693034e-03
2.963065e-02	3.150000e-01	4.693034e-03
2.963065e-02	3.100000e-01	4.693034e-03
2.853170e-02	5.950000e-01	9.270510e-03
2.853170e-02	5.900000e-01	9.270510e-03
2.853170e-02	5.850000e-01	9.270510e-03
2.853170e-02	5.800000e-01	9.270510e-03
2.853170e-02	5.750000e-01	9.270510e-03
2.853170e-02	5.700000e-01	9.270510e-03
2.853170e-02	5.650000e-01	9.270510e-03
2.853170e-02	5.600000e-01	9.270510e-03
2.853170e-02	5.550000e-01	9.270510e-03
2.853170e-02	5.500000e-01	9.270510e-03
2.853170e-02	5.450000e-01	9.270510e-03
2.853170e-02	5.400000e-01	9.270510e-03
2.853170e-02	5.350000e-01	9.270510e-03
2.853170e-02	5.300000e-01	9.270510e-03
2.853170e-02	5.250000e-01	9.270510e-03
2.853170e-02	5.200000e-01	9.270510e-03
2.853170e-02	5.150000e-01	9.270510e-03
2.853170e-02	5.100000e-01	9.270510e-03
2.853170e-02	5.050000e-01	9.270510e-03
2.853170e-02	5.000000e-01	9.270510e-03
2.853170e-02	4.950000e-01	9.270510e-03
2.853170e-02	4.900000e-01	9.270510e-03
2.853170e-02	4.850000e-01	9.270510e-03
2.853170e-02	4.800000e-01	9.270510e-03
2.853170e-02	4.750000e-01	9.270510e-03
2.853170e-02	4.700000e-01	9.270510e-03
2.853170e-02	4.650000e-01	9.270510e-03
2.853170e-02	4.600000e-01	9.270510e-03
2.853170e-02	4.550000e-01	9.270510e-03
2.853170e-02	4.500000e-01	9.270510e-03
2.853170e-02	4.450000e-01	9.270510e-03
2.853170e-02	4.400000e-01	9.270510e-03
2.853170e-02	4.350000e-01	9.270510e-03
2.853170e-02	4.300000e-01	9.270510e-03
2.853170e-02	4.250000e-01	9.270510e-03
2.853170e-02	4.200000e-01	9.270510e-03
2.853170e-02	4.150000e-01	9.270510e-03
2.853170e-02	4.100000e-01	9.270510e-03
2.853170e-02	4.050000e-01	9.270510e-03
2.853170e-02	4.000000e-01	9.270510e-03
2.853170e-02	3.950000e-01	9.270510e-03
2.853170e-02	3.900000e-01	9.270510e-03
2.853170e-02	3.850000e-01	9.270510e-03
2.853170e-02	3.800000e-01	9.270510e-03
2.853170e-02	3.750000e-01	9.270510e-03
2.853170e-02	3.700000e-01	9.270510e-03
2.853170e-02	3.650000e-01	9.270510e-03
2.853170e-02	3.600000e-01	9.270510e-03
2.853170e-02	3.550000e-01	9.270510e-03
2.853170e-02	3.500000e-01	9.270510e-03
2.853170e-02	3.450000e-01	9.270510e-03
2.853170e-02	3.400000e-01	9.270510e-03
2.853170e-02	3.350000e-01	9.270510e-03
2.853170e-02	3.300000e-01	9.270510e-03
2.853170e-02	3.250000e-01	9.270510e-03
2.853170e-02	3.200000e-01	9.270510e-03
2.853170e-02	3.150000e-01	9.270510e-03
2.853170e-02	3.100000e-01	9.270510e-03
2.673020e-02	5.950000e-01	1.361971e-02
2.673020e-02	5.900000e-01	1.361971e-02
2.673020e-02	5.850000e-01	1.361971e-02
2.673020e-02	5.800000e-01	1.361971e-02
2.673020e-02	5.750000e-01	1.361971e-02
2.673020e-02	5.700000e-01	1.361971e-02
2.673020e-02	5.650000e-01	1.361971e-02
2.673020e-02	5.600000e-01	1.361971e-02
2.673020e-02	5.550000e-01	1.361971e-02
2.673020e-02	5.500000e-01	1.361971e-02
2.673020e-02	5.450000e-01	1.361971e-02
2.673020e-02	5.400000e-01	1.361971e-02
2.673020e-02	5.350000e-01	1.361971e-02
2.673020e-02	5.300000e-01	1.361971e-02
2.673020e-02	5.250000e-01	1.361971e-02
2.673020e-02	5.200000e-01	1.361971e-02
2.673020e-02	5.150000e-01	1.361971e-02
2.673020e-02	5.100000e-01	1.361971e-02
2.673020e-02	5.050000e-01	1.361971e-02
2.673020e-02	5.000000e-01	1.361971e-02
2.673020e-02	4.950000e-01	1.361971e-02
2.673020e-02	4.900000e-01	1.361971e-02
2.673020e-02	4.850000e-01	1.361971e-02
2.673020e-02	4.800000e-01	1.361971e-02
2.673020e-02	4.750000e-01	1.361971e-02
2.673020e-02	4.700000e-01	1.361971e-02
2.673020e-02	4.650000e-01	1.361971e-02
2.673020e-02	4.600000e-01	1.361971e-02
2.673020e-02	4.550000e-01	1.361971e-02
2.673020e-02	4.500000e-01	1.361971e-02
2.673020e-02	4.450000e-01	1.361971e-02
2.673020e-02	4.400000e-01	1.361971e-02
2.673020e-02	4.350000e-01	1.361971e-02
2.673020e-02	4.300000e-01	1.361971e-02
2.673020e-02	4.250000e-01	1.361971e-02
2.673020e-02	4.200000e-01	1.361971e-02
2.673020e-02	4.150000e-01	1.361971e-02
2.673020e-02	4.100000e-01	1.361971e-02
2.673020e-02	4.050000e-01	1.361971e-02
2.673020e-02	4.000000e-01	1.361971e-02
2.673020e-02	3.950000e-01	1.361971e-02
2.673020e-02	3.900000e-01	1.361971e-02
2.673020e-02	3.850000e-01	1.361971e-02
2.673020e-02	3.800000e-01	1.361971e-02
2.673020e-02	3.750000e-01	1.361971e-02
2.673020e-02	3.700000e-01	1.361971e-02
2.673020e-02	3.650000e-01	1.361971e-02
2.673020e-02	3.600000e-01	1.361971e-02
2.673020e-02	3.550000e-01	1.361971e-02
2.673020e-02	3.500000e-01	1.361971e-02
2.673020e-02	3.450000e-01	1.361971e-02
2.673020e-02	3.400000e-01	1.361971e-02
2.673020e-02	3.350000e-01	1.361971e-02
2.673020e-02	3.300000e-01	1.361971e-02
2.673020e-02	3.250000e-01	1.361971e-02
2.673020e-02	3.200000e-01	1.361971e-02
2.673020e-02	3.150000e-01	1.361971e-02
2.673020e-02	3.100000e-01	1.361971e-02
2.427051e-02	5.950000e-01	1.763356e-02
2.427051e-02	5.900000e-01	1.763356e-02
2.427051e-02	5.850000e-01	1.763356e-02
2.427051e-02	5.800000e-01	1.763356e-02
2.427051e-02	5.750000e-01	1.763356e-02
2.427051e-02	5.700000e-01	1.763356e-02
2.427051e-02	5.650000e-01	1.763356e-02
2.427051e-02	5.600000e-01	1.763356e-02
2.427051e-02	5.550000e-01	1.763356e-02
2.427051e-02	5.500000e-01	1.763356e-02
2.427051e-02	5.450000e-01	1.763356e-02
2.427051e-02	5.400000e-01	1.763356e-02
2.427051e-02	5.350000e-01	1.763356e-02
2.427051e-02	5.300000e-01	1.763356e-02
2.427051e-02	5.250000e-01	1.763356e-02
2.427051e-02	5.200000e-01	1.763356e-02
2.427051e-02	5.150000e-01	1.763356e-02
2.427051e-02	5.100000e-01	1.763356e-02
2.427051e-02	5.050000e-01	1.763356e-02
2.427051e-02	5.000000e-01	1.763356e-02
2.427051e-02	4.950000e-01	1.763356e-02
2.427051e-02	4.900000e-01	1.763356e-02
2.427051e-02	4.850000e-01	1.763356e-02
2.427051e-02	4.800000e-01	1.763356e-02
2.427051e-02	4.750000e-01	1.763356e-02
2.427051e-02	4.700000e-01	1.763356e-02
2.427051e-02	4.650000e-01	1.763356e-02
2.427051e-02	4.600000e-01	1.763356e-02
2.427051e-02	4.550000e-01	1.763356e-02
2.427051e-02	4.500000e-01	1.763356e-02
2.427051e-02	4.450000e-01	1.763356e-02
2.427051e-02	4.400000e-01	1.763356e-02
2.427051e-02	4.350000e-01	1.763356e-02
2.427051e-02	4.300000e-01	1.763356e-02
2.427051e-02	4.250000e-01	1.763356e-02
2.427051e-02	4.200000e-01	1.763356e-02
2.427051e-02	4.150000e-01	1.763356e-02
2.427051e-02	4.100000e-01	1.763356e-02
2.427051e-02	4.050000e-01	1.763356e-02
2.427051e-02	4.000000e-01	1.763356e-02
2.427051e-02	3.950000e-01	1.763356e-02
2.427051e-02	3.900000e-01	1.763356e-02
2.427051e-02	3.850000e-01	1.763356e-02
2.427051e-02	3.800000e-01	1.763356e-02
2.427051e-02	3.750000e-01	1.763356e-02
2.427051e-02	3.700000e-01	1.763356e-02
2.427051e-02	3.650000e-01	1.763356e-02
2.427051e-02	3.600000e-01	1.763356e-02
2.427051e-02	3.550000e-01	1.763356e-02
2.427051e-02	3.500000e-01	1.763356e-02
2.427051e-02	3.450000e-01	1.763356e-02
2.427051e-02	3.400000e-01	1.763356e-02
2.427051e-02	3.350000e-01	1.763356e-02
2.427051e-02	3.300000e-01	1.763356e-02
2.427051e-02	3.250000e-01	1.763356e-02
2.427051e-02	3.200000e-01	1.763356e-02
2.427051e-02	3.150000e-01	1.763356e-02
2.427051e-02	3.100000e-01	1.763356e-02
2.121320e-02	5.950000e-01	2.121320e-02
2.121320e-02	5.900000e-01	2.121320e-02
2.121320e-02	5.850000e-01	2.121320e-02
2.121320e-02	5.800000e-01	2.121320e-02
2.121320e-02	5.750000e-01	2.121320e-02
2.121320e-02	5.700000e-01	2.121320e-02
2.121320e-02	5.650000e-01	2.121320e-02
2.121320e-02	5.600000e-01	2.121320e-02
2.121320e-02	5.550000e-01	2.121320e-02
2.121320e-02	5.500000e-01	2.121320e-02
2.121320e-02	5.450000e-01	2.121320e-02
2.121320e-02	5.400000e-01	2.121320e-02
2.121320e-02	5.350000e-01	2.121320e-02
2.121320e-02	5.300000e-01	2.121320e-02
2.121320e-02	5.250000e-01	2.121320e-02
2.121320e-02	5.200000e-01	2.121320e-02
2.121320e-02	5.150000e-01	2.121320e-02
2.121320e-02	5.100000e-01	2.121320e-02
2.121320e-02	5.050000e-01	2.121320e-02
2.121320e-02	5.000000e-01	2.121320e-02
2.121320e-02	4.950000e-01	2.121320e-02
2.121320e-02	4.900000e-01	2.121320e-02
2.121320e-02	4.850000e-01	2.121320e-02
2.121320e-02	4.800000e-01	2.121320e-02
2.121320e-02	4.750000e-01	2.121320e-02
2.121320e-02	4.700000e-01	2.121320e-02
2.121320e-02	4.650000e-01	2.121320e-02
2.121320e-02	4.600000e-01	2.121320e-02
2.121320e-02	4.550000e-01	2.121320e-02
2.121320e-02	4.500000e-01	2.121320e-02
2.121320e-02	4.450000e-01	2.121320e-02
2.121320e-02	4.400000e-01	2.121320e-02
2.121320e-02	4.350000e-01	2.121320e-02
2.121320e-02	4.300000e-01	2.121320e-02
2.121320e-02	4.250000e-01	2.121320e-02
2.121320e-02	4.200000e-01	2.121320e-02
2.121320e-02	4.150000e-01	2.121320e-02
2.121320e-02	4.100000e-01	2.121320e-02
2.121320e-02	4.050000e-01	2.121320e-02
2.121320e-02	4.000000e-01	2.121320e-02
2.121320e-02	3.950000e-01	2.121320e-02
2.121320e-02	3.900000e-01	2.121320e-02
2.121320e-02	3.850000e-01	2.121320e-02
2.121320e-02	3.800000e-01	2.121320e-02
2.121320e-02	3.750000e-01	2.121320e-02
2.121320e-02	3.700000e-01	2.121320e-02
2.121320e-02	3.650000e-01	2.121320e-02
2.121320e-02	3.600000e-01	2.121320e-02
2.121320e-02	3.550000e-01	2.121320e-02
2.121320e-02	3.500000e-01	2.121320e-02
2.121320e-02	3.450000e-01	2.121320e-02
2.121320e-02	3.400000e-01	2.121320e-02
2.121320e-02	3.350000e-01	2.121320e-02
2.121320e-02	3.300000e-01	2.121320e-02
2.121320e-02	3.250000e-01	2.121320e-02
2.121320e-02	3.200000e-01	2.121320e-02
2.121320e-02	3.150000e-01	2.121320e-02
2.121320e-02	3.100000e-01	2.121320e-02
1.763356e-02	5.950000e-01	2.427051e-02
1.763356e-02	5.900000e-01	2.427051e-02
1.763356e-02	5.850000e-01	2.427051e-02
1.763356e-02	5.800000e-01	2.427051e-02
1.763356e-02	5.750000e-01	2.427051e-02
1.763356e-02	5.700000e-01	2.427051e-02
1.763356e-02	5.650000e-01	2.427051e-02
1.763356e-02	5.600000e-01	2.427051e-02
1.763356e-02	5.550000e-01	2.427051e-02
1.763356e-02	5.500000e-01	2.427051e-02
1.763356e-02	5.450000e-01	2.427051e-02
1.763356e-02	5.400000e-01	2.427051e-02
1.763356e-02	5.350000e-01	2.427051e-02
1.763356e-02	5.300000e-01	2.427051e-02
1.763356e-02	5.250000e-01	2.427051e-02
1.763356e-02	5.200000e-01	2.427051e-02
1.763356e-02	5.150000e-01	2.427051e-02
1.763356e-02	5.100000e-01	2.427051e-02
1.763356e-02	5.050000e-01	2.427051e-02
1.763356e-02	5.000000e-01	2.427051e-02
1.763356e-02	4.950000e-01	2.427051e-02
1.763356e-02	4.900000e-01	2.427051e-02
1.763356e-02	4.850000e-01	2.427051e-02
1.763356e-02	4.800000e-01	2.427051e-02
1.763356e-02	4.750000e-01	2.427051e-02
1.763356e-02	4.700000e-01	2.427051e-02
1.763356e-02	4.650000e-01	2.427051e-02
1.763356e-02	4.600000e-01	2.427051e-02
1.763356e-02	4.550000e-01	2.427051e-02
1.763356e-02	4.500000e-01	2.427051e-02
1.763356e-02	4.450000e-01	2.427051e-02
1.763356e-02	4.400000e-01	2.427051e-02
1.763356e-02	4.350000e-01	2.427051e-02
1.763356e-02	4.300000e-01	2.427051e-02
1.763356e-02	4.250000e-01	2.427051e-02
1.763356e-02	4.200000e-01	2.427051e-02
1.763356e-02	4.150000e-01	2.427051e-02
1.763356e-02	4.100000e-01	2.427051e-02
1.763356e-02	4.050000e-01	2.427051e-02
1.763356e-02	4.000000e-01	2.427051e-02
1.763356e-02	3.950000e-01	2.427051e-02
1.763356e-02	3.900000e-01	2.427051e-02
1.763356e-02	3.850000e-01	2.427051e-02
1.763356e-02	3.800000e-01	2.427051e-02
1.763356e-02	3.750000e-01	2.427051e-02
1.763356e-02	3.700000e-01	2.427051e-02
1.763356e-02	3.650000e-01	2.427051e-02
1.763356e-02	3.600000e-01	2.427051e-02
1.763356e-02	3.550000e-01	2.427051e-02
1.763356e-02	3.500000e-01	2.427051e-02
1.763356e-02	3.450000e-01	2.427051e-02
1.763356e-02	3.400000e-01	2.427051e-02
1.763356e-02	3.350000e-01	2.427051e-02
1.763356e-02	3.300000e-01	2.427051e-02
1.763356e-02	3.250000e-01	2.427051e-02
1.763356e-02	3.200000e-01	2.427051e-02
1.763356e-02	3.150000e-01	2.427051e-02
1.763356e-02	3.100000e-01	2.427051e-02
1.361971e-02	5.950000e-01	2.673020e-02
1.361971e-02	5.900000e-01	2.673020e-02
1.361971e-02	5.850000e-01	2.673020e-02
1.361971e-02	5.800000e-01	2.673020e-02
1.361971e-02	5.750000e-01	2.673020e-02
1.361971e-02	5.700000e-01	2.673020e-02
1.361971e-02	5.650000e-01	2.673020e-02
1.361971e-02	5.600000e-01	2.673020e-02
1.361971e-02	5.550000e-01	2.673020e-02
1.361971e-02	5.500000e-01	2.673020e-02
1.361971e-02	5.450000e-01	2.673020e-02
1.361971e-02	5.400000e-01	2.673020e-02
1.361971e-02	5.350000e-01	2.673020e-02
1.361971e-02	5.300000e-01	2.673020e-02
1.361971e-02	5.250000e-01	2.673020e-02
1.361971e-02	5.200000e-01	2.673020e-02
1.361971e-02	5.150000e-01	2.673020e-02
1.361971e-02	5.100000e-01	2.673020e-02
1.361971e-02	5.050000e-01	2.673020e-02
1.361971e-02	5.000000e-01	2.673020e-02
1.361971e-02	4.950000e-01	2.673020e-02
1.361971e-02	4.900000e-01	2.673020e-02
1.361971e-02	4.850000e-01	2.673020e-02
1.361971e-02	4.800000e-01	2.673020e-02
1.361971e-02	4.750000e-01	2.673020e-02
1.361971e-02	4.700000e-01	2.673020e-02
1.361971e-02	4.650000e-01	2.673020e-02
1.361971e-02	4.600000e-01	2.673020e-02
1.361971e-02	4.550000e-01	2.673020e-02
1.361971e-02	4.500000e-01	2.673020e-02
1.361971e-02	4.450000e-01	2.673020e-02
1.361971e-02	4.400000e-01	2.673020e-02
1.361971e-02	4.350000e-01	2.673020e-02
1.361971e-02	4.300000e-01	2.673020e-02
1.361971e-02	4.250000e-01	2.673020e-02
1.361971e-02	4.200000e-01	2.673020e-02
1.361971e-02	4.150000e-01	2.673020e-02
1.361971e-02	4.100000e-01	2.673020e-02
1.361971e-02	4.050000e-01	2.673020e-02
1.361971e-02	4.000000e-01	2.673020e-02
1.361971e-02	3.950000e-01	2.673020e-02
1.361971e-02	3.900000e-01	2.673020e-02
1.361971e-02	3.850000e-01	2.673020e-02
1.361971e-02	3.800000e-01	2.673020e-02
1.361971e-02	3.750000e-01	2.673020e-02
1.361971e-02	3.700000e-01	2.673020e-02
1.361971e-02	3.650000e-01	2.673020e-02
1.361971e-02	3.600000e-01	2.673020e-02
1.361971e-02	3.550000e-01	2.673020e-02
1.361971e-02	3.500000e-01	2.673020e-02
1.361971e-02	3.450000e-01	2.673020e-02
1.361971e-02	3.400000e-01	2.673020e-02
1.361971e-02	3.350000e-01	2.673020e-02
1.361971e-02	3.300000e-01	2.673020e-02
1.361971e-02	3.250000e-01	2.673020e-02
1.361971e-02	3.200000e-01	2.673020e-02
1.361971e-02	3.150000e-01	2.673020e-02
1.361971e-02	3.100000e-01	2.673020e-02
9.270510e-03	5.950000e-01	2.853170e-02
9.270510e-03	5.900000e-01	2.853170e-02
9.270510e-03	5.850000e-01	2.853170e-02
9.270510e-03	5.800000e-01	2.853170e-02
9.270510e-03	5.750000e-01	2.853170e-02
9.270510e-03	5.700000e-01	2.853170e-02
9.270510e-03	5.650000e-01	2.853170e-02
9.270510e-03	5.600000e-01	2.853170e-02
9.270510e-03	5.550000e-01	2.853170e-02
9.270510e-03	5.500000e-01	2.853170e-02
9.270510e-03	5.450000e-01	2.853170e-02
9.270510e-03	5.400000e-01	2.853170e-02
9.270510e-03	5.350000e-01	2.853170e-02
9.270510e-03	5.300000e-01	2.853170e-02
9.270510e-03	5.250000e-01	2.853170e-02
9.270510e-03	5.200000e-01	2.853170e-02
9.270510e-03	5.150000e-01	2.853170e-02
9.270510e-03	5.100000e-01	2.853170e-02
9.270510e-03	5.050000e-01	2.853170e-02
9.270510e-03	5.000000e-01	2.853170e-02
9.270510e-03	4.950000e-01	2.853170e-02
9.270510e-03	4.900000e-01	2.853170e-02
9.270510e-03	4.850000e-01	2.853170e-02
9.270510e-03	4.800000e-01	2.853170e-02
9.270510e-03	4.750000e-01	2.853170e-02
9.270510e-03	4.700000e-01	2.853170e-02
9.270510e-03	4.650000e-01	2.853170e-02
9.270510e-03	4.600000e-01	2.853170e-02
9.270510e-03	4.550000e-01	2.853170e-02
9.270510e-03	4.500000e-01	2.853170e-02
9.270510e-03	4.450000e-01	2.853170e-02
9.270510e-03	4.400000e-01	2.853170e-02
9.270510e-03	4.350000e-01	2.853170e-02
9.270510e-03	4.300000e-01	2.853170e-02
9.270510e-03	4.250000e-01	2.853170e-02
9.270510e-03	4.200000e-01	2.853170e-02
9.270510e-03	4.150000e-01	2.853170e-02
9.270510e-03	4.100000e-01	2.853170e-02
9.270510e-03	4.050000e-01	2.853170e-02
9.270510e-03	4.000000e-01	2.853170e-02
9.270510e-03	3.950000e-01	2.853170e-02
9.270510e-03	3.900000e-01	2.853170e-02
9.270510e-03	3.850000e-01	2.853170e-02
9.270510e-03	3.800000e-01	2.853170e-02
9.270510e-03	3.750000e-01	2.853170e-02
9.270510e-03	3.700000e-01	2.853170e-02
9.270510e-03	3.650000e-01	2.853170e-02
9.270510e-03	3.600000e-01	2.853170e-02
9.270510e-03	3.550000e-01	2.853170e-02
9.270510e-03	3.500000e-01	2.853170e-02
9.270510e-03	3.450000e-01	2.853170e-02
9.270510e-03	3.400000e-01	2.853170e-02
9.270510e-03	3.350000e-01	2.853170e-02
9.270510e-03	3.300000e-01	2.853170e-02
9.270510e-03	3.250000e-01	2.853170e-02
9.270510e-03	3.200000e-01	2.853170e-02
9.270510e-03	3.150000e-01	2.853170e-02
9.270510e-03	3.100000e-01	2.853170e-02
4.693034e-03	5.950000e-01	2.963065e-02
4.693034e-03	5.900000e-01	2.963065e-02
4.693034e-03	5.850000e-01	2.963065e-02
4.693034e-03	5.800000e-01	2.963065e-02
4.693034e-03	5.750000e-01	2.963065e-02
4.693034e-03	5.700000e-01	2.963065e-02
4.693034e-03	5.650000e-01	2.963065e-02
4.693034e-03	5.600000e-01	2.963065e-02
4.693034e-03	5.550000e-01	2.963065e-02
4.693034e-03	5.500000e-01	2.963065e-02
4.693034e-03	5.450000e-01	2.963065e-02
4.693034e-03	5.400000e-01	2.963065e-02
4.693034e-03	5.350000e-01	2.963065e-02
4.693034e-03	5.300000e-01	2.963065e-02
4.693034e-03	5.250000e-01	2.963065e-02
4.693034e-03	5.200000e-01	2.963065e-02
4.693034e-03	5.150000e-01	2.963065e-02
4.693034e-03	5.100000e-01	2.963065e-02
4.693034e-03	5.050000e-01	2.963065e-02
4.693034e-03	5.000000e-01	2.963065e-02
4.693034e-03	4.950000e-01	2.963065e-02
4.693034e-03	4.900000e-01	2.963065e-02
4.693034e-03	4.850000e-01	2.963065e-02
4.693034e-03	4.800000e-01	2.963065e-02
4.693034e-03	4.750000e-01	2.963065e-02
4.693034e-03	4.700000e-01	2.963065e-02
4.693034e-03	4.650000e-01	2.963065e-02
4.693034e-03	4.600000e-01	2.963065e-02
4.693034e-03	4.550000e-01	2.963065e-02
4.693034e-03	4.500000e-01	2.963065e-02
4.693034e-03	4.450000e-01	2.963065e-02
4.693034e-03	4.400000e-01	2.963065e-02
4.693034e-03	4.350000e-01	2.963065e-02
4.693034e-03	4.300000e-01	2.963065e-02
4.693034e-03	4.250000e-01	2.963065e-02
4.693034e-03	4.200000e-01	2.963065e-02
4.693034e-03	4.150000e-01	2.963065e-02
4.693034e-03	4.100000e-01	2.963065e-02
4.693034e-03	4.050000e-01	2.963065e-02
4.693034e-03	4.000000e-01	2.963065e-02
4.693034e-03	3.950000e-01	2.963065e-02
4.693034e-03	3.900000e-01	2.963065e-02
4.693034e-03	3.850000e-01	2.963065e-02
4.693034e-03	3.800000e-01	2.963065e-02
4.693034e-03	3.750000e-01	2.963065e-02
4.693034e-03	3.700000e-01	2.963065e-02
4.693034e-03	3.650000e-01	2.963065e-02
4.693034e-03	3.600000e-01	2.963065e-02
4.693034e-03	3.550000e-01	2.963065e-02
4.693034e-03	3.500000e-01	2.963065e-02
4.693034e-03	3.450000e-01	2.963065e-02
4.693034e-03	3.400000e-01	2.963065e-02
4.693034e-03	3.350000e-01	2.963065e-02
4.693034e-03	3.300000e-01	2.963065e-02
4.693034e-03	3.250000e-01	2.963065e-02
4.693034e-03	3.200000e-01	2.963065e-02
4.693034e-03	3.150000e-01	2.963065e-02
4.693034e-03	3.100000e-01	2.963065e-02
CELLS	9600	38400
3	79	69	11	
3	79	138	69	
3	78	138	79	
3	78	196	138	
3	77	196	78	
3	77	254	196	
3	76	254	77	
3	76	312	254	
3	75	312	76	
3	75	370	312	
3	74	370	75	
3	74	428	370	
3	73	428	74	
3	73	486	428	
3	72	486	73	
3	72	544	486	
3	71	544	72	
3	71	602	544	
3	70	602	71	
3	70	137	602	
3	138	68	69	
3	138	139	68	
3	196	139	138	
3	196	197	139	
3	254	197	196	
3	254	255	197	
3	312	255	254	
3	312	313	255	
3	370	313	312	
3	370	371	313	
3	428	371	370	
3	428	429	371	
3	486	429	428	
3	486	487	429	
3	544	487	486	
3	544	545	487	
3	602	545	544	
3	602	603	545	
3	137	603	602	
3	137	136	603	
3	139	67	68	
3	139	140	67	
3	197	140	139	
3	197	198	140	
3	255	198	197	
3	255	256	198	
3	313	256	255	
3	313	314	256	
3	371	314	313	
3	371	372	314	
3	429	372	371	
3	429	430	372	
3	487	430	429	
3	487	488	430	
3	545	488	487	
3	545	546	488	
3	603	546	545	
3	603	604	546	
3	136	604	603	
3	136	135	604	
3	140	66	67	
3	140	141	66	
3	198	141	140	
3	198	199	141	
3	256	199	198	
3	256	257	199	
3	314	257	256	
3	314	315	257	
3	372	315	314	
3	372	373	315	
3	430	373	372	
3	430	431	373	
3	488	431	430	
3	488	489	431	
3	546	489	488	
3	546	547	489	
3	604	547	546	
3	604	605	547	
3	135	605	604	
3	135	134	605	
3	141	65	66	
3	141	142	65	
3	199	142	141	
3	199	200	142	
3	257	200	199	
3	257	258	200	
3	315	258	257	
3	315	316	258	
3	373	316	315	
3	373	374	316	
3	431	374	373	
3	431	432	374	
3	489	432	431	
3	489	490	432	
3	547	490	489	
3	547	548	490	
3	605	548	547	
3	605	606	548	
3	134	606	605	
3	134	133	606	
3	142	64	65	
3	142	143	64	
3	200	143	142	
3	200	201	143	
3	258	201	200	
3	258	259	201	
3	316	259	258	
3	316	317	259	
3	374	317	316	
3	374	375	317	
3	432	375	374	
3	432	433	375	
3	490	433	432	
3	490	491	433	
3	548	491	490	
3	548	549	491	
3	606	549	548	
3	606	607	549	
3	133	607	606	
3	133	132	607	
3	143	63	64	
3	143	144	63	
3	201	144	143	
3	201	202	144	
3	259	202	201	
3	259	260	202	
3	317	260	259	
3	317	318	260	
3	375	318	317	
3	375	376	318	
3	433	376	375	
3	433	434	376	
3	491	434	433	
3	491	492	434	
3	549	492	491	
3	549	550	492	
3	607	550	549	
3	607	608	550	
3	132	608	607	
3	132	131	608	
3	144	62	63	
3	144	145	62	
3	202	145	144	
3	202	203	145	
3	260	203	202	
3	260	261	203	
3	318	261	260	
3	318	319	261	
3	376	319	318	
3	376	377	319	
3	434	377	376	
3	434	435	377	
3	492	435	434	
3	492	493	435	
3	550	493	492	
3	550	551	493	
3	608	551	550	
3	608	609	551	
3	131	609	608	
3	131	130	609	
3	145	61	62	
3	145	146	61	
3	203	146	145	
3	203	204	146	
3	261	204	203	
3	261	262	204	
3	319	262	261	
3	319	320	262	
3	377	320	319	
3	377	378	320	
3	435	378	377	
3	435	436	378	
3	493	436	435	
3	493	494	436	
3	551	494	493	
3	551	552	494	
3	609	552	551	
3	609	610	552	
3	130	610	609	
3	130	129	610	
3	146	60	61	
3	146	147	60	
3	204	147	146	
3	204	205	147	
3	262	205	204	
3	262	263	205	
3	320	263	262	
3	320	321	263	
3	378	321	320	
3	378	379	321	
3	436	379	378	
3	436	437	379	
3	494	437	436	
3	494	495	437	
3	552	495	494	
3	552	553	495	
3	610	553	552	
3	610	611	553	
3	129	611	610	
3	129	128	611	
3	147	59	60	
3	147	148	59	
3	205	148	147	
3	205	206	148	
3	263	206	205	
3	263	264	206	
3	321	264	263	
3	321	322	264	
3	379	322	321	
3	379	380	322	
3	437	380	379	
3	437	438	380	
3	495	438	437	
3	495	496	438	
3	553	496	495	
3	553	554	496	
3	611	554	553	
3	611	612	554	
3	128	612	611	
3	128	127	612	
3	148	58	59	
3	148	149	58	
3	206	149	148	
3	206	207	149	
3	264	207	206	
3	264	265	207	
3	322	265	264	
3	322	323	265	
3	380	323	322	
3	380	381	323	
3	438	381	380	
3	438	439	381	
3	496	439	438	
3	496	497	439	
3	554	497	496	
3	554	555	497	
3	612	555	554	
3	612	613	555	
3	127	613	612	
3	127	126	613	
3	149	57	58	
3	149	150	57	
3	207	150	149	
3	207	208	150	
3	265	208	207	
3	265	266	208	
3	323	266	265	
3	323	324	266	
3	381	324	323	
3	381	382	324	
3	439	382	381	
3	439	440	382	
3	497	440	439	
3	497	498	440	
3	555	498	497	
3	555	556	498	
3	613	556	555	
3	613	614	556	
3	126	614	613	
3	126	125	614	
3	150	56	57	
3	150	151	56	
3	208	151	150	
3	208	209	151	
3	266	209	208	
3	266	267	209	
3	324	267	266	
3	324	325	267	
3	382	325	324	
3	382	383	325	
3	440	383	382	
3	440	441	383	
3	498	441	440	
3	498	499	441	
3	556	499	498	
3	556	557	499	
3	614	557	556	
3	614	615	557	
3	125	615	614	
3	125	124	615	
3	151	55	56	
3	151	152	55	
3	209	152	151	
3	209	210	152	
3	267	210	209	
3	267	268	210	
3	325	268	267	
3	325	326	268	
3	383	326	325	
3	383	384	326	
3	441	384	383	
3	441	442	384	
3	499	442	441	
3	499	500	442	
3	557	500	499	
3	557	558	500	
3	615	558	557	
3	615	616	558	
3	124	616	615	
3	124	123	616	
3	152	54	55	
3	152	153	54	
3	210	153	152	
3	210	211	153	
3	268	211	210	
3	268	269	211	
3	326	269	268	
3	326	327	269	
3	384	327	326	
3	384	385	327	
3	442	385	384	
3	442	443	385	
3	500	443	442	
3	500	501	443	
3	558	501	500	
3	558	559	501	
3	616	559	558	
3	616	617	559	
3	123	617	616	
3	123	122	617	
3	153	53	54	
3	153	154	53	
3	211	154	153	
3	211	212	154	
3	269	212	211	
3	269	270	212	
3	327	270	269	
3	327	328	270	
3	385	328	327	
3	385	386	328	
3	443	386	385	
3	443	444	386	
3	501	444	443	
3	501	502	444	
3	559	502	501	
3	559	560	502	
3	617	560	559	
3	617	618	560	
3	122	618	617	
3	122	121	618	
3	154	52	53	
3	154	155	52	
3	212	155	154	
3	212	213	155	
3	270	213	212	
3	270	271	213	
3	328	271	270	
3	328	329	271	
3	386	329	328	
3	386	387	329	
3	444	387	386	
3	444	445	387	
3	502	445	444	
3	502	503	445	
3	560	503	502	
3	560	561	503	
3	618	561	560	
3	618	619	561	
3	121	619	618	
3	121	120	619	
3	155	51	52	
3	155	156	51	
3	213	156	155	
3	213	214	156	
3	271	214	213	
3	271	272	214	
3	329	272	271	
3	329	330	272	
3	387	330	329	
3	387	388	330	
3	445	388	387	
3	445	446	388	
3	503	446	445	
3	503	504	446	
3	561	504	503	
3	561	562	504	
3	619	562	561	
3	619	620	562	
3	120	620	619	
3	120	119	620	
3	156	50	51	
3	156	157	50	
3	214	157	156	
3	214	215	157	
3	272	215	214	
3	272	273	215	
3	330	273	272	
3	330	331	273	
3	388	331	330	
3	388	389	331	
3	446	389	388	
3	446	447	389	
3	504	447	446	
3	504	505	447	
3	562	505	504	
3	562	563	505	
3	620	563	562	
3	620	621	563	
3	119	621	620	
3	119	118	621	
3	157	49	50	
3	157	158	49	
3	215	158	157	
3	215	216	158	
3	273	216	215	
3	273	274	216	
3	331	274	273	
3	331	332	274	
3	389	332	331	
3	389	390	332	
3	447	390	389	
3	447	448	390	
3	505	448	447	
3	505	506	448	
3	563	506	505	
3	563	564	506	
3	621	564	563	
3	621	622	564	
3	118	622	621	
3	118	117	622	
3	158	48	49	
3	158	159	48	
3	216	159	158	
3	216	217	159	
3	274	217	216	
3	274	275	217	
3	332	275	274	
3	332	333	275	
3	390	333	332	
3	390	391	333	
3	448	391	390	
3	448	449	391	
3	506	449	448	
3	506	507	449	
3	564	507	506	
3	564	565	507	
3	622	565	564	
3	622	623	565	
3	117	623	622	
3	117	116	623	
3	159	47	48	
3	159	160	47	
3	217	160	159	
3	217	218	160	
3	275	218	217	
3	275	276	218	
3	333	276	275	
3	333	334	276	
3	391	334	333	
3	391	392	334	
3	449	392	391	
3	449	450	392	
3	507	450	449	
3	507	508	450	
3	565	508	507	
3	565	566	508	
3	623	566	565	
3	623	624	566	
3	116	624	623	
3	116	115	624	
3	160	46	47	
3	160	161	46	
3	218	161	160	
3	218	219	161	
3	276	219	218	
3	276	277	219	
3	334	277	276	
3	334	335	277	
3	392	335	334	
3	392	393	335	
3	450	393	392	
3	450	451	393	
3	508	451	450	
3	508	509	451	
3	566	509	508	
3	566	567	509	
3	624	567	566	
3	624	625	567	
3	115	625	624	
3	115	114	625	
3	161	45	46	
3	161	162	45	
3	219	162	161	
3	219	220	162	
3	277	220	219	
3	277	278	220	
3	335	278	277	
3	335	336	278	
3	393	336	335	
3	393	394	336	
3	451	394	393	
3	451	452	394	
3	509	452	451	
3	509	510	452	
3	567	510	509	
3	567	568	510	
3	625	568	567	
3	625	626	568	
3	114	626	625	
3	114	113	626	
3	162	44	45	
3	162	163	44	
3	220	163	162	
3	220	221	163	
3	278	221	220	
3	278	279	221	
3	336	279	278	
3	336	337	279	
3	394	337	336	
3	394	395	337	
3	452	395	394	
3	452	453	395	
3	510	453	452	
3	510	511	453	
3	568	511	510	
3	568	569	511	
3	626	569	568	
3	626	627	569	
3	113	627	626	
3	113	112	627	
3	163	43	44	
3	163	164	43	
3	221	164	163	
3	221	222	164	
3	279	222	221	
3	279	280	222	
3	337	280	279	
3	337	338	280	
3	395	338	337	
3	395	396	338	
3	453	396	395	
3	453	454	396	
3	511	454	453	
3	511	512	454	
3	569	512	511	
3	569	570	512	
3	627	570	569	
3	627	628	570	
3	112	628	627	
3	112	111	628	
3	164	42	43	
3	164	165	42	
3	222	165	164	
3	222	223	165	
3	280	223	222	
3	280	281	223	
3	338	281	280	
3	338	339	281	
3	396	339	338	
3	396	397	339	
3	454	397	396	
3	454	455	397	
3	512	455	454	
3	512	513	455	
3	570	513	512	
3	570	571	513	
3	628	571	570	
3	628	629	571	
3	111	629	628	
3	111	110	629	
3	165	41	42	
3	165	166	41	
3	223	166	165	
3	223	224	166	
3	281	224	223	
3	281	282	224	
3	339	282	281	
3	339	340	282	
3	397	340	339	
3	397	398	340	
3	455	398	397	
3	455	456	398	
3	513	456	455	
3	513	514	456	
3	571	514	513	
3	571	572	514	
3	629	572	571	
3	629	630	572	
3	110	630	629	
3	110	109	630	
3	166	40	41	
3	166	167	40	
3	224	167	166	
3	224	225	167	
3	282	225	224	
3	282	283	225	
3	340	283	282	
3	340	341	283	
3	398	341	340	
3	398	399	341	
3	456	399	398	
3	456	457	399	
3	514	457	456	
3	514	515	457	
3	572	515	514	
3	572	573	515	
3	630	573	572	
3	630	631	573	
3	109	631	630	
3	109	108	631	
3	167	39	40	
3	167	168	39	
3	225	168	167	
3	225	226	168	
3	283	226	225	
3	283	284	226	
3	341	284	283	
3	341	342	284	
3	399	342	341	
3	399	400	342	
3	457	400	399	
3	457	458	400	
3	515	458	457	
3	515	516	458	
3	573	516	515	
3	573	574	516	
3	631	574	573	
3	631	632	574	
3	108	632	631	
3	108	107	632	
3	168	38	39	
3	168	169	38	
3	226	169	168	
3	226	227	169	
3	284	227	226	
3	284	285	227	
3	342	285	284	
3	342	343	285	
3	400	343	342	
3	400	401	343	
3	458	401	400	
3	458	459	401	
3	516	459	458	
3	516	517	459	
3	574	517	516	
3	574	575	517	
3	632	575	574	
3	632	633	575	
3	107	633	632	
3	107	106	633	
3	169	37	38	
3	169	170	37	
3	227	170	169	
3	227	228	170	
3	285	228	227	
3	285	286	228	
3	343	286	285	
3	343	344	286	
3	401	344	343	
3	401	402	344	
3	459	402	401	
3	459	460	402	
3	517	460	459	
3	517	518	460	
3	575	518	517	
3	575	576	518	
3	633	576	575	
3	633	634	576	
3	106	634	633	
3	106	105	634	
3	170	36	37	
3	170	171	36	
3	228	171	170	
3	228	229	171	
3	286	229	228	
3	286	287	229	
3	344	287	286	
3	344	345	287	
3	402	345	344	
3	402	403	345	
3	460	403	402	
3	460	461	403	
3	518	461	460	
3	518	519	461	
3	576	519	518	
3	576	577	519	
3	634	577	576	
3	634	635	577	
3	105	635	634	
3	105	104	635	
3	171	35	36	
3	171	172	35	
3	229	172	171	
3	229	230	172	
3	287	230	229	
3	287	288	230	
3	345	288	287	
3	345	346	288	
3	403	346	345	
3	403	404	346	
3	461	404	403	
3	461	462	404	
3	519	462	461	
3	519	520	462	
3	577	520	519	
3	577	578	520	
3	635	578	577	
3	635	636	578	
3	104	636	635	
3	104	103	636	
3	172	34	35	
3	172	173	34	
3	230	173	172	
3	230	231	173	
3	288	231	230	
3	288	289	231	
3	346	289	288	
3	346	347	289	
3	404	347	346	
3	404	405	347	
3	462	405	404	
3	462	463	405	
3	520	463	462	
3	520	521	463	
3	578	521	520	
3	578	579	521	
3	636	579	578	
3	636	637	579	
3	103	637	636	
3	103	102	637	
3	173	33	34	
3	173	174	33	
3	231	174	173	
3	231	232	174	
3	289	232	231	
3	289	290	232	
3	347	290	289	
3	347	348	290	
3	405	348	347	
3	405	406	348	
3	463	406	405	
3	463	464	406	
3	521	464	463	
3	521	522	464	
3	579	522	521	
3	579	580	522	
3	637	580	579	
3	637	638	580	
3	102	638	637	
3	102	101	638	
3	174	32	33	
3	174	175	32	
3	232	175	174	
3	232	233	175	
3	290	233	232	
3	290	291	233	
3	348	291	290	
3	348	349	291	
3	406	349	348	
3	406	407	349	
3	464	407	406	
3	464	465	407	
3	522	465	464	
3	522	523	465	
3	580	523	522	
3	580	581	523	
3	638	581	580	
3	638	639	581	
3	101	639	638	
3	101	100	639	
3	175	31	32	
3	175	176	31	
3	233	176	175	
3	233	234	176	
3	291	234	233	
3	291	292	234	
3	349	292	291	
3	349	350	292	
3	407	350	349	
3	407	408	350	
3	465	408	407	
3	465	466	408	
3	523	466	465	
3	523	524	466	
3	581	524	523	
3	581	582	524	
3	639	582	581	
3	639	640	582	
3	100	640	639	
3	100	99	640	
3	176	30	31	
3	176	177	30	
3	234	177	176	
3	234	235	177	
3	292	235	234	
3	292	293	235	
3	350	293	292	
3	350	351	293	
3	408	351	350	
3	408	409	351	
3	466	409	408	
3	466	467	409	
3	524	467	466	
3	524	525	467	
3	582	525	524	
3	582	583	525	
3	640	583	582	
3	640	641	583	
3	99	641	640	
3	99	98	641	
3	177	29	30	
3	177	178	29	
3	235	178	177	
3	235	236	178	
3	293	236	235	
3	293	294	236	
3	351	294	293	
3	351	352	294	
3	409	352	351	
3	409	410	352	
3	467	410	409	
3	467	468	410	
3	525	468	467	
3	525	526	468	
3	583	526	525	
3	583	584	526	
3	641	584	583	
3	641	642	584	
3	98	642	641	
3	98	97	642	
3	178	28	29	
3	178	179	28	
3	236	179	178	
3	236	237	179	
3	294	237	236	
3	294	295	237	
3	352	295	294	
3	352	353	295	
3	410	353	352	
3	410	411	353	
3	468	411	410	
3	468	469	411	
3	526	469	468	
3	526	527	469	
3	584	527	526	
3	584	585	527	
3	642	585	584	
3	642	643	585	
3	97	643	642	
3	97	96	643	
3	179	27	28	
3	179	180	27	
3	237	180	179	
3	237	238	180	
3	295	238	237	
3	295	296	238	
3	353	296	295	
3	353	354	296	
3	411	354	353	
3	411	412	354	
3	469	412	411	
3	469	470	412	
3	527	470	469	
3	527	528	470	
3	585	528	527	
3	585	586	528	
3	643	586	585	
3	643	644	586	
3	96	644	643	
3	96	95	644	
3	180	26	27	
3	180	181	26	
3	238	181	180	
3	238	239	181	
3	296	239	238	
3	296	297	239	
3	354	297	296	
3	354	355	297	
3	412	355	354	
3	412	413	355	
3	470	413	412	
3	470	471	413	
3	528	471	470	
3	528	529	471	
3	586	529	528	
3	586	587	529	
3	644	587	586	
3	644	645	587	
3	95	645	644	
3	95	94	645	
3	181	25	26	
3	181	182	25	
3	239	182	181	
3	239	240	182	
3	297	240	239	
3	297	298	240	
3	355	298	297	
3	355	356	298	
3	413	356	355	
3	413	414	356	
3	471	414	413	
3	471	472	414	
3	529	472	471	
3	529	530	472	
3	587	530	529	
3	587	588	530	
3	645	588	587	
3	645	646	588	
3	94	646	645	
3	94	93	646	
3	182	24	25	
3	182	183	24	
3	240	183	182	
3	240	241	183	
3	298	241	240	
3	298	299	241	
3	356	299	298	
3	356	357	299	
3	414	357	356	
3	414	415	357	
3	472	415	414	
3	472	473	415	
3	530	473	472	
3	530	531	473	
3	588	531	530	
3	588	589	531	
3	646	589	588	
3	646	647	589	
3	93	647	646	
3	93	92	647	
3	183	23	24	
3	183	184	23	
3	241	184	183	
3	241	242	184	
3	299	242	241	
3	299	300	242	
3	357	300	299	
3	357	358	300	
3	415	358	357	
3	415	416	358	
3	473	416	415	
3	473	474	416	
3	531	474	473	
3	531	532	474	
3	589	532	531	
3	589	590	532	
3	647	590	589	
3	647	648	590	
3	92	648	647	
3	92	91	648	
3	184	22	23	
3	184	185	22	
3	242	185	184	
3	242	243	185	
3	300	243	242	
3	300	301	243	
3	358	301	300	
3	358	359	301	
3	416	359	358	
3	416	417	359	
3	474	417	416	
3	474	475	417	
3	532	475	474	
3	532	533	475	
3	590	533	532	
3	590	591	533	
3	648	591	590	
3	648	649	591	
3	91	649	648	
3	91	90	649	
3	185	21	22	
3	185	186	21	
3	243	186	185	
3	243	244	186	
3	301	244	243	
3	301	302	244	
3	359	302	301	
3	359	360	302	
3	417	360	359	
3	417	418	360	
3	475	418	417	
3	475	476	418	
3	533	476	475	
3	533	534	476	
3	591	534	533	
3	591	592	534	
3	649	592	591	
3	649	650	592	
3	90	650	649	
3	90	89	650	
3	186	20	21	
3	186	187	20	
3	244	187	186	
3	244	245	187	
3	302	245	244	
3	302	303	245	
3	360	303	302	
3	360	361	303	
3	418	361	360	
3	418	419	361	
3	476	419	418	
3	476	477	419	
3	534	477	476	
3	534	535	477	
3	592	535	534	
3	592	593	535	
3	650	593	592	
3	650	651	593	
3	89	651	650	
3	89	88	651	
3	187	19	20	
3	187	188	19	
3	245	188	187	
3	245	246	188	
3	303	246	245	
3	303	304	246	
3	361	304	303	
3	361	362	304	
3	419	362	361	
3	419	420	362	
3	477	420	419	
3	477	478	420	
3	535	478	477	
3	535	536	478	
3	593	536	535	
3	593	594	536	
3	651	594	593	
3	651	652	594	
3	88	652	651	
3	88	87	652	
3	188	18	19	
3	188	189	18	
3	246	189	188	
3	246	247	189	
3	304	247	246	
3	304	305	247	
3	362	305	304	
3	362	363	305	
3	420	363	362	
3	420	421	363	
3	478	421	420	
3	478	479	421	
3	536	479	478	
3	536	537	479	
3	594	537	536	
3	594	595	537	
3	652	595	594	
3	652	653	595	
3	87	653	652	
3	87	86	653	
3	189	17	18	
3	189	190	17	
3	247	190	189	
3	247	248	190	
3	305	248	247	
3	305	306	248	
3	363	306	305	
3	363	364	306	
3	421	364	363	
3	421	422	364	
3	479	422	421	
3	479	480	422	
3	537	480	479	
3	537	538	480	
3	595	538	537	
3	595	596	538	
3	653	596	595	
3	653	654	596	
3	86	654	653	
3	86	85	654	
3	190	16	17	
3	190	191	16	
3	248	191	190	
3	248	249	191	
3	306	249	248	
3	306	307	249	
3	364	307	306	
3	364	365	307	
3	422	365	364	
3	422	423	365	
3	480	423	422	
3	480	481	423	
3	538	481	480	
3	538	539	481	
3	596	539	538	
3	596	597	539	
3	654	597	596	
3	654	655	597	
3	85	655	654	
3	85	84	655	
3	191	15	16	
3	191	192	15	
3	249	192	191	
3	249	250	192	
3	307	250	249	
3	307	308	250	
3	365	308	307	
3	365	366	308	
3	423	366	365	
3	423	424	366	
3	481	424	423	
3	481	482	424	
3	539	482	481	
3	539	540	482	
3	597	540	539	
3	597	598	540	
3	655	598	597	
3	655	656	598	
3	84	656	655	
3	84	83	656	
3	192	14	15	
3	192	193	14	
3	250	193	192	
3	250	251	193	
3	308	251	250	
3	308	309	251	
3	366	309	308	
3	366	367	309	
3	424	367	366	
3	424	425	367	
3	482	425	424	
3	482	483	425	
3	540	483	482	
3	540	541	483	
3	598	541	540	
3	598	599	541	
3	656	599	598	
3	656	657	599	
3	83	657	656	
3	83	82	657	
3	193	13	14	
3	193	194	13	
3	251	194	193	
3	251	252	194	
3	309	252	251	
3	309	310	252	
3	367	310	309	
3	367	368	310	
3	425	368	367	
3	425	426	368	
3	483	426	425	
3	483	484	426	
3	541	484	483	
3	541	542	484	
3	599	542	541	
3	599	600	542	
3	657	600	599	
3	657	658	600	
3	82	658	657	
3	82	81	658	
3	194	12	13	
3	194	195	12	
3	252	195	194	
3	252	253	195	
3	310	253	252	
3	310	311	253	
3	368	311	310	
3	368	369	311	
3	426	369	368	
3	426	427	369	
3	484	427	426	
3	484	485	427	
3	542	485	484	
3	542	543	485	
3	600	543	542	
3	600	601	543	
3	658	601	600	
3	658	659	601	
3	81	659	658	
3	81	80	659	
3	195	1	12	
3	195	10	1	
3	253	10	195	
3	253	9	10	
3	311	9	253	
3	311	8	9	
3	369	8	311	
3	369	7	8	
3	427	7	369	
3	427	6	7	
3	485	6	427	
3	485	5	6	
3	543	5	485	
3	543	4	5	
3	601	4	543	
3	601	3	4	
3	659	3	601	
3	659	2	3	
3	80	2	659	
3	80	0	2	
3	671	661	660	
3	671	673	661	
3	670	673	671	
3	670	674	673	
3	669	674	670	
3	669	675	674	
3	668	675	669	
3	668	676	675	
3	667	676	668	
3	667	677	676	
3	666	677	667	
3	666	678	677	
3	665	678	666	
3	665	679	678	
3	664	679	665	
3	664	680	679	
3	663	680	664	
3	663	681	680	
3	662	681	663	
3	662	672	681	
3	673	11	661	
3	673	79	11	
3	674	79	673	
3	674	78	79	
3	675	78	674	
3	675	77	78	
3	676	77	675	
3	676	76	77	
3	677	76	676	
3	677	75	76	
3	678	75	677	
3	678	74	75	
3	679	74	678	
3	679	73	74	
3	680	73	679	
3	680	72	73	
3	681	72	680	
3	681	71	72	
3	672	71	681	
3	672	70	71	
3	750	740	682	
3	750	809	740	
3	749	809	750	
3	749	867	809	
3	748	867	749	
3	748	925	867	
3	747	925	748	
3	747	983	925	
3	746	983	747	
3	746	1041	983	
3	745	1041	746	
3	745	1099	1041	
3	744	1099	745	
3	744	1157	1099	
3	743	1157	744	
3	743	1215	1157	
3	742	1215	743	
3	742	1273	1215	
3	741	1273	742	
3	741	808	1273	
3	809	739	740	
3	809	810	739	
3	867	810	809	
3	867	868	810	
3	925	868	867	
3	925	926	868	
3	983	926	925	
3	983	984	926	
3	1041	984	983	
3	1041	1042	984	
3	1099	1042	1041	
3	1099	1100	1042	
3	1157	1100	1099	
3	1157	1158	1100	
3	1215	1158	1157	
3	1215	1216	1158	
3	1273	1216	1215	
3	1273	1274	1216	
3	808	1274	1273	
3	808	807	1274	
3	810	738	739	
3	810	811	738	
3	868	811	810	
3	868	869	811	
3	926	869	868	
3	926	927	869	
3	984	927	926	
3	984	985	927	
3	1042	985	984	
3	1042	1043	985	
3	1100	1043	1042	
3	1100	1101	1043	
3	1158	1101	1100	
3	1158	1159	1101	
3	1216	1159	1158	
3	1216	1217	1159	
3	1274	1217	1216	
3	1274	1275	1217	
3	807	1275	1274	
3	807	806	1275	
3	811	737	738	
3	811	812	737	
3	869	812	811	
3	869	870	812	
3	927	870	869	
3	927	928	870	
3	985	928	927	
3	985	986	928	
3	1043	986	985	
3	1043	1044	986	
3	1101	1044	1043	
3	1101	1102	1044	
3	1159	1102	1101	
3	1159	1160	1102	
3	1217	1160	1159	
3	1217	1218	1160	
3	1275	1218	1217	
3	1275	1276	1218	
3	806	1276	1275	
3	806	805	1276	
3	812	736	737	
3	812	813	736	
3	870	813	812	
3	870	871	813	
3	928	871	870	
3	928	929	871	
3	986	929	928	
3	986	987	929	
3	1044	987	986	
3	1044	1045	987	
3	1102	1045	1044	
3	1102	1103	1045	
3	1160	1103	1102	
3	1160	1161	1103	
3	1218	1161	1160	
3	1218	1219	1161	
3	1276	1219	1218	
3	1276	1277	1219	
3	805	1277	1276	
3	805	804	1277	
3	813	735	736	
3	813	814	735	
3	871	814	813	
3	871	872	814	
3	929	872	871	
3	929	930	872	
3	987	930	929	
3	987	988	930	
3	1045	988	987	
3	1045	1046	988	
3	1103	1046	1045	
3	1103	1104	1046	
3	1161	1104	1103	
3	1161	1162	1104	
3	1219	1162	1161	
3	1219	1220	1162	
3	1277	1220	1219	
3	1277	1278	1220	
3	804	1278	1277	
3	804	803	1278	
3	814	734	735	
3	814	815	734	
3	872	815	814	
3	872	873	815	
3	930	873	872	
3	930	931	873	
3	988	931	930	
3	988	989	931	
3	1046	989	988	
3	1046	1047	989	
3	1104	1047	1046	
3	1104	1105	1047	
3	1162	1105	1104	
3	1162	1163	1105	
3	1220	1163	1162	
3	1220	1221	1163	
3	1278	1221	1220	
3	1278	1279	1221	
3	803	1279	1278	
3	803	802	1279	
3	815	733	734	
3	815	816	733	
3	873	816	815	
3	873	874	816	
3	931	874	873	
3	931	932	874	
3	989	932	931	
3	989	990	932	
3	1047	990	989	
3	1047	1048	990	
3	1105	1048	1047	
3	1105	1106	1048	
3	1163	1106	1105	
3	1163	1164	1106	
3	1221	1164	1163	
3	1221	1222	1164	
3	1279	1222	1221	
3	1279	1280	1222	
3	802	1280	1279	
3	802	801	1280	
3	816	732	733	
3	816	817	732	
3	874	817	816	
3	874	875	817	
3	932	875	874	
3	932	933	875	
3	990	933	932	
3	990	991	933	
3	1048	991	990	
3	1048	1049	991	
3	1106	1049	1048	
3	1106	1107	1049	
3	1164	1107	1106	
3	1164	1165	1107	
3	1222	1165	1164	
3	1222	1223	1165	
3	1280	1223	1222	
3	1280	1281	1223	
3	801	1281	1280	
3	801	800	1281	
3	817	731	732	
3	817	818	731	
3	875	818	817	
3	875	876	818	
3	933	876	875	
3	933	934	876	
3	991	934	933	
3	991	992	934	
3	1049	992	991	
3	1049	1050	992	
3	1107	1050	1049	
3	1107	1108	1050	
3	1165	1108	1107	
3	1165	1166	1108	
3	1223	1166	1165	
3	1223	1224	1166	
3	1281	1224	1223	
3	1281	1282	1224	
3	800	1282	1281	
3	800	799	1282	
3	818	730	731	
3	818	819	730	
3	876	819	818	
3	876	877	819	
3	934	877	876	
3	934	935	877	
3	992	935	934	
3	992	993	935	
3	1050	993	992	
3	1050	1051	993	
3	1108	1051	1050	
3	1108	1109	1051	
3	1166	1109	1108	
3	1166	1167	1109	
3	1224	1167	1166	
3	1224	1225	1167	
3	1282	1225	1224	
3	1282	1283	1225	
3	799	1283	1282	
3	799	798	1283	
3	819	729	730	
3	819	820	729	
3	877	820	819	
3	877	878	820	
3	935	878	877	
3	935	936	878	
3	993	936	935	
3	993	994	936	
3	1051	994	993	
3	1051	1052	994	
3	1109	1052	1051	
3	1109	1110	1052	
3	1167	1110	1109	
3	1167	1168	1110	
3	1225	1168	1167	
3	1225	1226	1168	
3	1283	1226	1225	
3	1283	1284	1226	
3	798	1284	1283	
3	798	797	1284	
3	820	728	729	
3	820	821	728	
3	878	821	820	
3	878	879	821	
3	936	879	878	
3	936	937	879	
3	994	937	936	
3	994	995	937	
3	1052	995	994	
3	1052	1053	995	
3	1110	1053	1052	
3	1110	1111	1053	
3	1168	1111	1110	
3	1168	1169	1111	
3	1226	1169	1168	
3	1226	1227	1169	
3	1284	1227	1226	
3	1284	1285	1227	
3	797	1285	1284	
3	797	796	1285	
3	821	727	728	
3	821	822	727	
3	879	822	821	
3	879	880	822	
3	937	880	879	
3	937	938	880	
3	995	938	937	
3	995	996	938	
3	1053	996	995	
3	1053	1054	996	
3	1111	1054	1053	
3	1111	1112	1054	
3	1169	1112	1111	
3	1169	1170	1112	
3	1227	1170	1169	
3	1227	1228	1170	
3	1285	1228	1227	
3	1285	1286	1228	
3	796	1286	1285	
3	796	795	1286	
3	822	726	727	
3	822	823	726	
3	880	823	822	
3	880	881	823	
3	938	881	880	
3	938	939	881	
3	996	939	938	
3	996	997	939	
3	1054	997	996	
3	1054	1055	997	
3	1112	1055	1054	
3	1112	1113	1055	
3	1170	1113	1112	
3	1170	1171	1113	
3	1228	1171	1170	
3	1228	1229	1171	
3	1286	1229	1228	
3	1286	1287	1229	
3	795	1287	1286	
3	795	794	1287	
3	823	725	726	
3	823	824	725	
3	881	824	823	
3	881	882	824	
3	939	882	881	
3	939	940	882	
3	997	940	939	
3	997	998	940	
3	1055	998	997	
3	1055	1056	998	
3	1113	1056	1055	
3	1113	1114	1056	
3	1171	1114	1113	
3	1171	1172	1114	
3	1229	1172	1171	
3	1229	1230	1172	
3	1287	1230	1229	
3	1287	1288	1230	
3	794	1288	1287	
3	794	793	1288	
3	824	724	725	
3	824	825	724	
3	882	825	824	
3	882	883	825	
3	940	883	882	
3	940	941	883	
3	998	941	940	
3	998	999	941	
3	1056	999	998	
3	1056	1057	999	
3	1114	1057	1056	
3	1114	1115	1057	
3	1172	1115	1114	
3	1172	1173	1115	
3	1230	1173	1172	
3	1230	1231	1173	
3	1288	1231	1230	
3	1288	1289	1231	
3	793	1289	1288	
3	793	792	1289	
3	825	723	724	
3	825	826	723	
3	883	826	825	
3	883	884	826	
3	941	884	883	
3	941	942	884	
3	999	942	941	
3	999	1000	942	
3	1057	1000	999	
3	1057	1058	1000	
3	1115	1058	1057	
3	1115	1116	1058	
3	1173	1116	1115	
3	1173	1174	1116	
3	1231	1174	1173	
3	1231	1232	1174	
3	1289	1232	1231	
3	1289	1290	1232	
3	792	1290	1289	
3	792	791	1290	
3	826	722	723	
3	826	827	722	
3	884	827	826	
3	884	885	827	
3	942	885	884	
3	942	943	885	
3	1000	943	942	
3	1000	1001	943	
3	1058	1001	1000	
3	1058	1059	1001	
3	1116	1059	1058	
3	1116	1117	1059	
3	1174	1117	1116	
3	1174	1175	1117	
3	1232	1175	1174	
3	1232	1233	1175	
3	1290	1233	1232	
3	1290	1291	1233	
3	791	1291	1290	
3	791	790	1291	
3	827	721	722	
3	827	828	721	
3	885	828	827	
3	885	886	828	
3	943	886	885	
3	943	944	886	
3	1001	944	943	
3	1001	1002	944	
3	1059	1002	1001	
3	1059	1060	1002	
3	1117	1060	1059	
3	1117	1118	1060	
3	1175	1118	1117	
3	1175	1176	1118	
3	1233	1176	1175	
3	1233	1234	1176	
3	1291	1234	1233	
3	1291	1292	1234	
3	790	1292	1291	
3	790	789	1292	
3	828	720	721	
3	828	829	720	
3	886	829	828	
3	886	887	829	
3	944	887	886	
3	944	945	887	
3	1002	945	944	
3	1002	1003	945	
3	1060	1003	1002	
3	1060	1061	1003	
3	1118	1061	1060	
3	1118	1119	1061	
3	1176	1119	1118	
3	1176	1177	1119	
3	1234	1177	1176	
3	1234	1235	1177	
3	1292	1235	1234	
3	1292	1293	1235	
3	789	1293	1292	
3	789	788	1293	
3	829	719	720	
3	829	830	719	
3	887	830	829	
3	887	888	830	
3	945	888	887	
3	945	946	888	
3	1003	946	945	
3	1003	1004	946	
3	1061	1004	1003	
3	1061	1062	1004	
3	1119	1062	1061	
3	1119	1120	1062	
3	1177	1120	1119	
3	1177	1178	1120	
3	1235	1178	1177	
3	1235	1236	1178	
3	1293	1236	1235	
3	1293	1294	1236	
3	788	1294	1293	
3	788	787	1294	
3	830	718	719	
3	830	831	718	
3	888	831	830	
3	888	889	831	
3	946	889	888	
3	946	947	889	
3	1004	947	946	
3	1004	1005	947	
3	1062	1005	1004	
3	1062	1063	1005	
3	1120	1063	1062	
3	1120	1121	1063	
3	1178	1121	1120	
3	1178	1179	1121	
3	1236	1179	1178	
3	1236	1237	1179	
3	1294	1237	1236	
3	1294	1295	1237	
3	787	1295	1294	
3	787	786	1295	
3	831	717	718	
3	831	832	717	
3	889	832	831	
3	889	890	832	
3	947	890	889	
3	947	948	890	
3	1005	948	947	
3	1005	1006	948	
3	1063	1006	1005	
3	1063	1064	1006	
3	1121	1064	1063	
3	1121	1122	1064	
3	1179	1122	1121	
3	1179	1180	1122	
3	1237	1180	1179	
3	1237	1238	1180	
3	1295	1238	1237	
3	1295	1296	1238	
3	786	1296	1295	
3	786	785	1296	
3	832	716	717	
3	832	833	716	
3	890	833	832	
3	890	891	833	
3	948	891	890	
3	948	949	891	
3	1006	949	948	
3	1006	1007	949	
3	1064	1007	1006	
3	1064	1065	1007	
3	1122	1065	1064	
3	1122	1123	1065	
3	1180	1123	1122	
3	1180	1181	1123	
3	1238	1181	1180	
3	1238	1239	1181	
3	1296	1239	1238	
3	1296	1297	1239	
3	785	1297	1296	
3	785	784	1297	
3	833	715	716	
3	833	834	715	
3	891	834	833	
3	891	892	834	
3	949	892	891	
3	949	950	892	
3	1007	950	949	
3	1007	1008	950	
3	1065	1008	1007	
3	1065	1066	1008	
3	1123	1066	1065	
3	1123	1124	1066	
3	1181	1124	1123	
3	1181	1182	1124	
3	1239	1182	1181	
3	1239	1240	1182	
3	1297	1240	1239	
3	1297	1298	1240	
3	784	1298	1297	
3	784	783	1298	
3	834	714	715	
3	834	835	714	
3	892	835	834	
3	892	893	835	
3	950	893	892	
3	950	951	893	
3	1008	951	950	
3	1008	1009	951	
3	1066	1009	1008	
3	1066	1067	1009	
3	1124	1067	1066	
3	1124	1125	1067	
3	1182	1125	1124	
3	1182	1183	1125	
3	1240	1183	1182	
3	1240	1241	1183	
3	1298	1241	1240	
3	1298	1299	1241	
3	783	1299	1298	
3	783	782	1299	
3	835	713	714	
3	835	836	713	
3	893	836	835	
3	893	894	836	
3	951	894	893	
3	951	952	894	
3	1009	952	951	
3	1009	1010	952	
3	1067	1010	1009	
3	1067	1068	1010	
3	1125	1068	1067	
3	1125	1126	1068	
3	1183	1126	1125	
3	1183	1184	1126	
3	1241	1184	1183	
3	1241	1242	1184	
3	1299	1242	1241	
3	1299	1300	1242	
3	782	1300	1299	
3	782	781	1300	
3	836	712	713	
3	836	837	712	
3	894	837	836	
3	894	895	837	
3	952	895	894	
3	952	953	895	
3	1010	953	952	
3	1010	1011	953	
3	1068	1011	1010	
3	1068	1069	1011	
3	1126	1069	1068	
3	1126	1127	1069	
3	1184	1127	1126	
3	1184	1185	1127	
3	1242	1185	1184	
3	1242	1243	1185	
3	1300	1243	1242	
3	1300	1301	1243	
3	781	1301	1300	
3	781	780	1301	
3	837	711	712	
3	837	838	711	
3	895	838	837	
3	895	896	838	
3	953	896	895	
3	953	954	896	
3	1011	954	953	
3	1011	1012	954	
3	1069	1012	1011	
3	1069	1070	1012	
3	1127	1070	1069	
3	1127	1128	1070	
3	1185	1128	1127	
3	1185	1186	1128	
3	1243	1186	1185	
3	1243	1244	1186	
3	1301	1244	1243	
3	1301	1302	1244	
3	780	1302	1301	
3	780	779	1302	
3	838	710	711	
3	838	839	710	
3	896	839	838	
3	896	897	839	
3	954	897	896	
3	954	955	897	
3	1012	955	954	
3	1012	1013	955	
3	1070	1013	1012	
3	1070	1071	1013	
3	1128	1071	1070	
3	1128	1129	1071	
3	1186	1129	1128	
3	1186	1187	1129	
3	1244	1187	1186	
3	1244	1245	1187	
3	1302	1245	1244	
3	1302	1303	1245	
3	779	1303	1302	
3	779	778	1303	
3	839	709	710	
3	839	840	709	
3	897	840	839	
3	897	898	840	
3	955	898	897	
3	955	956	898	
3	1013	956	955	
3	1013	1014	956	
3	1071	1014	1013	
3	1071	1072	1014	
3	1129	1072	1071	
3	1129	1130	1072	
3	1187	1130	1129	
3	1187	1188	1130	
3	1245	1188	1187	
3	1245	1246	1188	
3	1303	1246	1245	
3	1303	1304	1246	
3	778	1304	1303	
3	778	777	1304	
3	840	708	709	
3	840	841	708	
3	898	841	840	
3	898	899	841	
3	956	899	898	
3	956	957	899	
3	1014	957	956	
3	1014	1015	957	
3	1072	1015	1014	
3	1072	1073	1015	
3	1130	1073	1072	
3	1130	1131	1073	
3	1188	1131	1130	
3	1188	1189	1131	
3	1246	1189	1188	
3	1246	1247	1189	
3	1304	1247	1246	
3	1304	1305	1247	
3	777	1305	1304	
3	777	776	1305	
3	841	707	708	
3	841	842	707	
3	899	842	841	
3	899	900	842	
3	957	900	899	
3	957	958	900	
3	1015	958	957	
3	1015	1016	958	
3	1073	1016	1015	
3	1073	1074	1016	
3	1131	1074	1073	
3	1131	1132	1074	
3	1189	1132	1131	
3	1189	1190	1132	
3	1247	1190	1189	
3	1247	1248	1190	
3	1305	1248	1247	
3	1305	1306	1248	
3	776	1306	1305	
3	776	775	1306	
3	842	706	707	
3	842	843	706	
3	900	843	842	
3	900	901	843	
3	958	901	900	
3	958	959	901	
3	1016	959	958	
3	1016	1017	959	
3	1074	1017	1016	
3	1074	1075	1017	
3	1132	1075	1074	
3	1132	1133	1075	
3	1190	1133	1132	
3	1190	1191	1133	
3	1248	1191	1190	
3	1248	1249	1191	
3	1306	1249	1248	
3	1306	1307	1249	
3	775	1307	1306	
3	775	774	1307	
3	843	705	706	
3	843	844	705	
3	901	844	843	
3	901	902	844	
3	959	902	901	
3	959	960	902	
3	1017	960	959	
3	1017	1018	960	
3	1075	1018	1017	
3	1075	1076	1018	
3	1133	1076	1075	
3	1133	1134	1076	
3	1191	1134	1133	
3	1191	1192	1134	
3	1249	1192	1191	
3	1249	1250	1192	
3	1307	1250	1249	
3	1307	1308	1250	
3	774	1308	1307	
3	774	773	1308	
3	844	704	705	
3	844	845	704	
3	902	845	844	
3	902	903	845	
3	960	903	902	
3	960	961	903	
3	1018	961	960	
3	1018	1019	961	
3	1076	1019	1018	
3	1076	1077	1019	
3	1134	1077	1076	
3	1134	1135	1077	
3	1192	1135	1134	
3	1192	1193	1135	
3	1250	1193	1192	
3	1250	1251	1193	
3	1308	1251	1250	
3	1308	1309	1251	
3	773	1309	1308	
3	773	772	1309	
3	845	703	704	
3	845	846	703	
3	903	846	845	
3	903	904	846	
3	961	904	903	
3	961	962	904	
3	1019	962	961	
3	1019	1020	962	
3	1077	1020	1019	
3	1077	1078	1020	
3	1135	1078	1077	
3	1135	1136	1078	
3	1193	1136	1135	
3	1193	1194	1136	
3	1251	1194	1193	
3	1251	1252	1194	
3	1309	1252	1251	
3	1309	1310	1252	
3	772	1310	1309	
3	772	771	1310	
3	846	702	703	
3	846	847	702	
3	904	847	846	
3	904	905	847	
3	962	905	904	
3	962	963	905	
3	1020	963	962	
3	1020	1021	963	
3	1078	1021	1020	
3	1078	1079	1021	
3	1136	1079	1078	
3	1136	1137	1079	
3	1194	1137	1136	
3	1194	1195	1137	
3	1252	1195	1194	
3	1252	1253	1195	
3	1310	1253	1252	
3	1310	1311	1253	
3	771	1311	1310	
3	771	770	1311	
3	847	701	702	
3	847	848	701	
3	905	848	847	
3	905	906	848	
3	963	906	905	
3	963	964	906	
3	1021	964	963	
3	1021	1022	964	
3	1079	1022	1021	
3	1079	1080	1022	
3	1137	1080	1079	
3	1137	1138	1080	
3	1195	1138	1137	
3	1195	1196	1138	
3	1253	1196	1195	
3	1253	1254	1196	
3	1311	1254	1253	
3	1311	1312	1254	
3	770	1312	1311	
3	770	769	1312	
3	848	700	701	
3	848	849	700	
3	906	849	848	
3	906	907	849	
3	964	907	906	
3	964	965	907	
3	1022	965	964	
3	1022	1023	965	
3	1080	1023	1022	
3	1080	1081	1023	
3	1138	1081	1080	
3	1138	1139	1081	
3	1196	1139	1138	
3	1196	1197	1139	
3	1254	1197	1196	
3	1254	1255	1197	
3	1312	1255	1254	
3	1312	1313	1255	
3	769	1313	1312	
3	769	768	1313	
3	849	699	700	
3	849	850	699	
3	907	850	849	
3	907	908	850	
3	965	908	907	
3	965	966	908	
3	1023	966	965	
3	1023	1024	966	
3	1081	1024	1023	
3	1081	1082	1024	
3	1139	1082	1081	
3	1139	1140	1082	
3	1197	1140	1139	
3	1197	1198	1140	
3	1255	1198	1197	
3	1255	1256	1198	
3	1313	1256	1255	
3	1313	1314	1256	
3	768	1314	1313	
3	768	767	1314	
3	850	698	699	
3	850	851	698	
3	908	851	850	
3	908	909	851	
3	966	909	908	
3	966	967	909	
3	1024	967	966	
3	1024	1025	967	
3	1082	1025	1024	
3	1082	1083	1025	
3	1140	1083	1082	
3	1140	1141	1083	
3	1198	1141	1140	
3	1198	1199	1141	
3	1256	1199	1198	
3	1256	1257	1199	
3	1314	1257	1256	
3	1314	1315	1257	
3	767	1315	1314	
3	767	766	1315	
3	851	697	698	
3	851	852	697	
3	909	852	851	
3	909	910	852	
3	967	910	909	
3	967	968	910	
3	1025	968	967	
3	1025	1026	968	
3	1083	1026	1025	
3	1083	1084	1026	
3	1141	1084	1083	
3	1141	1142	1084	
3	1199	1142	1141	
3	1199	1200	1142	
3	1257	1200	1199	
3	1257	1258	1200	
3	1315	1258	1257	
3	1315	1316	1258	
3	766	1316	1315	
3	766	765	1316	
3	852	696	697	
3	852	853	696	
3	910	853	852	
3	910	911	853	
3	968	911	910	
3	968	969	911	
3	1026	969	968	
3	1026	1027	969	
3	1084	1027	1026	
3	1084	1085	1027	
3	1142	1085	1084	
3	1142	1143	1085	
3	1200	1143	1142	
3	1200	1201	1143	
3	1258	1201	1200	
3	1258	1259	1201	
3	1316	1259	1258	
3	1316	1317	1259	
3	765	1317	1316	
3	765	764	1317	
3	853	695	696	
3	853	854	695	
3	911	854	853	
3	911	912	854	
3	969	912	911	
3	969	970	912	
3	1027	970	969	
3	1027	1028	970	
3	1085	1028	1027	
3	1085	1086	1028	
3	1143	1086	1085	
3	1143	1144	1086	
3	1201	1144	1143	
3	1201	1202	1144	
3	1259	1202	1201	
3	1259	1260	1202	
3	1317	1260	1259	
3	1317	1318	1260	
3	764	1318	1317	
3	764	763	1318	
3	854	694	695	
3	854	855	694	
3	912	855	854	
3	912	913	855	
3	970	913	912	
3	970	971	913	
3	1028	971	970	
3	1028	1029	971	
3	1086	1029	1028	
3	1086	1087	1029	
3	1144	1087	1086	
3	1144	1145	1087	
3	1202	1145	1144	
3	1202	1203	1145	
3	1260	1203	1202	
3	1260	1261	1203	
3	1318	1261	1260	
3	1318	1319	1261	
3	763	1319	1318	
3	763	762	1319	
3	855	693	694	
3	855	856	693	
3	913	856	855	
3	913	914	856	
3	971	914	913	
3	971	972	914	
3	1029	972	971	
3	1029	1030	972	
3	1087	1030	1029	
3	1087	1088	1030	
3	1145	1088	1087	
3	1145	1146	1088	
3	1203	1146	1145	
3	1203	1204	1146	
3	1261	1204	1203	
3	1261	1262	1204	
3	1319	1262	1261	
3	1319	1320	1262	
3	762	1320	1319	
3	762	761	1320	
3	856	692	693	
3	856	857	692	
3	914	857	856	
3	914	915	857	
3	972	915	914	
3	972	973	915	
3	1030	973	972	
3	1030	1031	973	
3	1088	1031	1030	
3	1088	1089	1031	
3	1146	1089	1088	
3	1146	1147	1089	
3	1204	1147	1146	
3	1204	1205	1147	
3	1262	1205	1204	
3	1262	1263	1205	
3	1320	1263	1262	
3	1320	1321	1263	
3	761	1321	1320	
3	761	760	1321	
3	857	691	692	
3	857	858	691	
3	915	858	857	
3	915	916	858	
3	973	916	915	
3	973	974	916	
3	1031	974	973	
3	1031	1032	974	
3	1089	1032	1031	
3	1089	1090	1032	
3	1147	1090	1089	
3	1147	1148	1090	
3	1205	1148	1147	
3	1205	1206	1148	
3	1263	1206	1205	
3	1263	1264	1206	
3	1321	1264	1263	
3	1321	1322	1264	
3	760	1322	1321	
3	760	759	1322	
3	858	690	691	
3	858	859	690	
3	916	859	858	
3	916	917	859	
3	974	917	916	
3	974	975	917	
3	1032	975	974	
3	1032	1033	975	
3	1090	1033	1032	
3	1090	1091	1033	
3	1148	1091	1090	
3	1148	1149	1091	
3	1206	1149	1148	
3	1206	1207	1149	
3	1264	1207	1206	
3	1264	1265	1207	
3	1322	1265	1264	
3	1322	1323	1265	
3	759	1323	1322	
3	759	758	1323	
3	859	689	690	
3	859	860	689	
3	917	860	859	
3	917	918	860	
3	975	918	917	
3	975	976	918	
3	1033	976	975	
3	1033	1034	976	
3	1091	1034	1033	
3	1091	1092	1034	
3	1149	1092	1091	
3	1149	1150	1092	
3	1207	1150	1149	
3	1207	1208	1150	
3	1265	1208	1207	
3	1265	1266	1208	
3	1323	1266	1265	
3	1323	1324	1266	
3	758	1324	1323	
3	758	757	1324	
3	860	688	689	
3	860	861	688	
3	918	861	860	
3	918	919	861	
3	976	919	918	
3	976	977	919	
3	1034	977	976	
3	1034	1035	977	
3	1092	1035	1034	
3	1092	1093	1035	
3	1150	1093	1092	
3	1150	1151	1093	
3	1208	1151	1150	
3	1208	1209	1151	
3	1266	1209	1208	
3	1266	1267	1209	
3	1324	1267	1266	
3	1324	1325	1267	
3	757	1325	1324	
3	757	756	1325	
3	861	687	688	
3	861	862	687	
3	919	862	861	
3	919	920	862	
3	977	920	919	
3	977	978	920	
3	1035	978	977	
3	1035	1036	978	
3	1093	1036	1035	
3	1093	1094	1036	
3	1151	1094	1093	
3	1151	1152	1094	
3	1209	1152	1151	
3	1209	1210	1152	
3	1267	1210	1209	
3	1267	1268	1210	
3	1325	1268	1267	
3	1325	1326	1268	
3	756	1326	1325	
3	756	755	1326	
3	862	686	687	
3	862	863	686	
3	920	863	862	
3	920	921	863	
3	978	921	920	
3	978	979	921	
3	1036	979	978	
3	1036	1037	979	
3	1094	1037	1036	
3	1094	1095	1037	
3	1152	1095	1094	
3	1152	1153	1095	
3	1210	1153	1152	
3	1210	1211	1153	
3	1268	1211	1210	
3	1268	1269	1211	
3	1326	1269	1268	
3	1326	1327	1269	
3	755	1327	1326	
3	755	754	1327	
3	863	685	686	
3	863	864	685	
3	921	864	863	
3	921	922	864	
3	979	922	921	
3	979	980	922	
3	1037	980	979	
3	1037	1038	980	
3	1095	1038	1037	
3	1095	1096	1038	
3	1153	1096	1095	
3	1153	1154	1096	
3	1211	1154	1153	
3	1211	1212	1154	
3	1269	1212	1211	
3	1269	1270	1212	
3	1327	1270	1269	
3	1327	1328	1270	
3	754	1328	1327	
3	754	753	1328	
3	864	684	685	
3	864	865	684	
3	922	865	864	
3	922	923	865	
3	980	923	922	
3	980	981	923	
3	1038	981	980	
3	1038	1039	981	
3	1096	1039	1038	
3	1096	1097	1039	
3	1154	1097	1096	
3	1154	1155	1097	
3	1212	1155	1154	
3	1212	1213	1155	
3	1270	1213	1212	
3	1270	1271	1213	
3	1328	1271	1270	
3	1328	1329	1271	
3	753	1329	1328	
3	753	752	1329	
3	865	683	684	
3	865	866	683	
3	923	866	865	
3	923	924	866	
3	981	924	923	
3	981	982	924	
3	1039	982	981	
3	1039	1040	982	
3	1097	1040	1039	
3	1097	1098	1040	
3	1155	1098	1097	
3	1155	1156	1098	
3	1213	1156	1155	
3	1213	1214	1156	
3	1271	1214	1213	
3	1271	1272	1214	
3	1329	1272	1271	
3	1329	1330	1272	
3	752	1330	1329	
3	752	751	1330	
3	866	660	683	
3	866	671	660	
3	924	671	866	
3	924	670	671	
3	982	670	924	
3	982	669	670	
3	1040	669	982	
3	1040	668	669	
3	1098	668	1040	
3	1098	667	668	
3	1156	667	1098	
3	1156	666	667	
3	1214	666	1156	
3	1214	665	666	
3	1272	665	1214	
3	1272	664	665	
3	1330	664	1272	
3	1330	663	664	
3	751	663	1330	
3	751	662	663	
3	1408	1399	1341	
3	1408	1409	1399	
3	1407	1409	1408	
3	1407	1467	1409	
3	1406	1467	1407	
3	1406	1525	1467	
3	1405	1525	1406	
3	1405	1583	1525	
3	1404	1583	1405	
3	1404	1641	1583	
3	1403	1641	1404	
3	1403	1699	1641	
3	1402	1699	1403	
3	1402	1757	1699	
3	1401	1757	1402	
3	1401	1815	1757	
3	1400	1815	1401	
3	1400	1873	1815	
3	11	1873	1400	
3	11	69	1873	
3	1409	1398	1399	
3	1409	1410	1398	
3	1467	1410	1409	
3	1467	1468	1410	
3	1525	1468	1467	
3	1525	1526	1468	
3	1583	1526	1525	
3	1583	1584	1526	
3	1641	1584	1583	
3	1641	1642	1584	
3	1699	1642	1641	
3	1699	1700	1642	
3	1757	1700	1699	
3	1757	1758	1700	
3	1815	1758	1757	
3	1815	1816	1758	
3	1873	1816	1815	
3	1873	1874	1816	
3	69	1874	1873	
3	69	68	1874	
3	1410	1397	1398	
3	1410	1411	1397	
3	1468	1411	1410	
3	1468	1469	1411	
3	1526	1469	1468	
3	1526	1527	1469	
3	1584	1527	1526	
3	1584	1585	1527	
3	1642	1585	1584	
3	1642	1643	1585	
3	1700	1643	1642	
3	1700	1701	1643	
3	1758	1701	1700	
3	1758	1759	1701	
3	1816	1759	1758	
3	1816	1817	1759	
3	1874	1817	1816	
3	1874	1875	1817	
3	68	1875	1874	
3	68	67	1875	
3	1411	1396	1397	
3	1411	1412	1396	
3	1469	1412	1411	
3	1469	1470	1412	
3	1527	1470	1469	
3	1527	1528	1470	
3	1585	1528	1527	
3	1585	1586	1528	
3	1643	1586	1585	
3	1643	1644	1586	
3	1701	1644	1643	
3	1701	1702	1644	
3	1759	1702	1701	
3	1759	1760	1702	
3	1817	1760	1759	
3	1817	1818	1760	
3	1875	1818	1817	
3	1875	1876	1818	
3	67	1876	1875	
3	67	66	1876	
3	1412	1395	1396	
3	1412	1413	1395	
3	1470	1413	1412	
3	1470	1471	1413	
3	1528	1471	1470	
3	1528	1529	1471	
3	1586	1529	1528	
3	1586	1587	1529	
3	1644	1587	1586	
3	1644	1645	1587	
3	1702	1645	1644	
3	1702	1703	1645	
3	1760	1703	1702	
3	1760	1761	1703	
3	1818	1761	1760	
3	1818	1819	1761	
3	1876	1819	1818	
3	1876	1877	1819	
3	66	1877	1876	
3	66	65	1877	
3	1413	1394	1395	
3	1413	1414	1394	
3	1471	1414	1413	
3	1471	1472	1414	
3	1529	1472	1471	
3	1529	1530	1472	
3	1587	1530	1529	
3	1587	1588	1530	
3	1645	1588	1587	
3	1645	1646	1588	
3	1703	1646	1645	
3	1703	1704	1646	
3	1761	1704	1703	
3	1761	1762	1704	
3	1819	1762	1761	
3	1819	1820	1762	
3	1877	1820	1819	
3	1877	1878	1820	
3	65	1878	1877	
3	65	64	1878	
3	1414	1393	1394	
3	1414	1415	1393	
3	1472	1415	1414	
3	1472	1473	1415	
3	1530	1473	1472	
3	1530	1531	1473	
3	1588	1531	1530	
3	1588	1589	1531	
3	1646	1589	1588	
3	1646	1647	1589	
3	1704	1647	1646	
3	1704	1705	1647	
3	1762	1705	1704	
3	1762	1763	1705	
3	1820	1763	1762	
3	1820	1821	1763	
3	1878	1821	1820	
3	1878	1879	1821	
3	64	1879	1878	
3	64	63	1879	
3	1415	1392	1393	
3	1415	1416	1392	
3	1473	1416	1415	
3	1473	1474	1416	
3	1531	1474	1473	
3	1531	1532	1474	
3	1589	1532	1531	
3	1589	1590	1532	
3	1647	1590	1589	
3	1647	1648	1590	
3	1705	1648	1647	
3	1705	1706	1648	
3	1763	1706	1705	
3	1763	1764	1706	
3	1821	1764	1763	
3	1821	1822	1764	
3	1879	1822	1821	
3	1879	1880	1822	
3	63	1880	1879	
3	63	62	1880	
3	1416	1391	1392	
3	1416	1417	1391	
3	1474	1417	1416	
3	1474	1475	1417	
3	1532	1475	1474	
3	1532	1533	1475	
3	1590	1533	1532	
3	1590	1591	1533	
3	1648	1591	1590	
3	1648	1649	1591	
3	1706	1649	1648	
3	1706	1707	1649	
3	1764	1707	1706	
3	1764	1765	1707	
3	1822	1765	1764	
3	1822	1823	1765	
3	1880	1823	1822	
3	1880	1881	1823	
3	62	1881	1880	
3	62	61	1881	
3	1417	1390	1391	
3	1417	1418	1390	
3	1475	1418	1417	
3	1475	1476	1418	
3	1533	1476	1475	
3	1533	1534	1476	
3	1591	1534	1533	
3	1591	1592	1534	
3	1649	1592	1591	
3	1649	1650	1592	
3	1707	1650	1649	
3	1707	1708	1650	
3	1765	1708	1707	
3	1765	1766	1708	
3	1823	1766	1765	
3	1823	1824	1766	
3	1881	1824	1823	
3	1881	1882	1824	
3	61	1882	1881	
3	61	60	1882	
3	1418	1389	1390	
3	1418	1419	1389	
3	1476	1419	1418	
3	1476	1477	1419	
3	1534	1477	1476	
3	1534	1535	1477	
3	1592	1535	1534	
3	1592	1593	1535	
3	1650	1593	1592	
3	1650	1651	1593	
3	1708	1651	1650	
3	1708	1709	1651	
3	1766	1709	1708	
3	1766	1767	1709	
3	1824	1767	1766	
3	1824	1825	1767	
3	1882	1825	1824	
3	1882	1883	1825	
3	60	1883	1882	
3	60	59	1883	
3	1419	1388	1389	
3	1419	1420	1388	
3	1477	1420	1419	
3	1477	1478	1420	
3	1535	1478	1477	
3	1535	1536	1478	
3	1593	1536	1535	
3	1593	1594	1536	
3	1651	1594	1593	
3	1651	1652	1594	
3	1709	1652	1651	
3	1709	1710	1652	
3	1767	1710	1709	
3	1767	1768	1710	
3	1825	1768	1767	
3	1825	1826	1768	
3	1883	1826	1825	
3	1883	1884	1826	
3	59	1884	1883	
3	59	58	1884	
3	1420	1387	1388	
3	1420	1421	1387	
3	1478	1421	1420	
3	1478	1479	1421	
3	1536	1479	1478	
3	1536	1537	1479	
3	1594	1537	1536	
3	1594	1595	1537	
3	1652	1595	1594	
3	1652	1653	1595	
3	1710	1653	1652	
3	1710	1711	1653	
3	1768	1711	1710	
3	1768	1769	1711	
3	1826	1769	1768	
3	1826	1827	1769	
3	1884	1827	1826	
3	1884	1885	1827	
3	58	1885	1884	
3	58	57	1885	
3	1421	1386	1387	
3	1421	1422	1386	
3	1479	1422	1421	
3	1479	1480	1422	
3	1537	1480	1479	
3	1537	1538	1480	
3	1595	1538	1537	
3	1595	1596	1538	
3	1653	1596	1595	
3	1653	1654	1596	
3	1711	1654	1653	
3	1711	1712	1654	
3	1769	1712	1711	
3	1769	1770	1712	
3	1827	1770	1769	
3	1827	1828	1770	
3	1885	1828	1827	
3	1885	1886	1828	
3	57	1886	1885	
3	57	56	1886	
3	1422	1385	1386	
3	1422	1423	1385	
3	1480	1423	1422	
3	1480	1481	1423	
3	1538	1481	1480	
3	1538	1539	1481	
3	1596	1539	1538	
3	1596	1597	1539	
3	1654	1597	1596	
3	1654	1655	1597	
3	1712	1655	1654	
3	1712	1713	1655	
3	1770	1713	1712	
3	1770	1771	1713	
3	1828	1771	1770	
3	1828	1829	1771	
3	1886	1829	1828	
3	1886	1887	1829	
3	56	1887	1886	
3	56	55	1887	
3	1423	1384	1385	
3	1423	1424	1384	
3	1481	1424	1423	
3	1481	1482	1424	
3	1539	1482	1481	
3	1539	1540	1482	
3	1597	1540	1539	
3	1597	1598	1540	
3	1655	1598	1597	
3	1655	1656	1598	
3	1713	1656	1655	
3	1713	1714	1656	
3	1771	1714	1713	
3	1771	1772	1714	
3	1829	1772	1771	
3	1829	1830	1772	
3	1887	1830	1829	
3	1887	1888	1830	
3	55	1888	1887	
3	55	54	1888	
3	1424	1383	1384	
3	1424	1425	1383	
3	1482	1425	1424	
3	1482	1483	1425	
3	1540	1483	1482	
3	1540	1541	1483	
3	1598	1541	1540	
3	1598	1599	1541	
3	1656	1599	1598	
3	1656	1657	1599	
3	1714	1657	1656	
3	1714	1715	1657	
3	1772	1715	1714	
3	1772	1773	1715	
3	1830	1773	1772	
3	1830	1831	1773	
3	1888	1831	1830	
3	1888	1889	1831	
3	54	1889	1888	
3	54	53	1889	
3	1425	1382	1383	
3	1425	1426	1382	
3	1483	1426	1425	
3	1483	1484	1426	
3	1541	1484	1483	
3	1541	1542	1484	
3	1599	1542	1541	
3	1599	1600	1542	
3	1657	1600	1599	
3	1657	1658	1600	
3	1715	1658	1657	
3	1715	1716	1658	
3	1773	1716	1715	
3	1773	1774	1716	
3	1831	1774	1773	
3	1831	1832	1774	
3	1889	1832	1831	
3	1889	1890	1832	
3	53	1890	1889	
3	53	52	1890	
3	1426	1381	1382	
3	1426	1427	1381	
3	1484	1427	1426	
3	1484	1485	1427	
3	1542	1485	1484	
3	1542	1543	1485	
3	1600	1543	1542	
3	1600	1601	1543	
3	1658	1601	1600	
3	1658	1659	1601	
3	1716	1659	1658	
3	1716	1717	1659	
3	1774	1717	1716	
3	1774	1775	1717	
3	1832	1775	1774	
3	1832	1833	1775	
3	1890	1833	1832	
3	1890	1891	1833	
3	52	1891	1890	
3	52	51	1891	
3	1427	1380	1381	
3	1427	1428	1380	
3	1485	1428	1427	
3	1485	1486	1428	
3	1543	1486	1485	
3	1543	1544	1486	
3	1601	1544	1543	
3	1601	1602	1544	
3	1659	1602	1601	
3	1659	1660	1602	
3	1717	1660	1659	
3	1717	1718	1660	
3	1775	1718	1717	
3	1775	1776	1718	
3	1833	1776	1775	
3	1833	1834	1776	
3	1891	1834	1833	
3	1891	1892	1834	
3	51	1892	1891	
3	51	50	1892	
3	1428	1379	1380	
3	1428	1429	1379	
3	1486	1429	1428	
3	1486	1487	1429	
3	1544	1487	1486	
3	1544	1545	1487	
3	1602	1545	1544	
3	1602	1603	1545	
3	1660	1603	1602	
3	1660	1661	1603	
3	1718	1661	1660	
3	1718	1719	1661	
3	1776	1719	1718	
3	1776	1777	1719	
3	1834	1777	1776	
3	1834	1835	1777	
3	1892	1835	1834	
3	1892	1893	1835	
3	50	1893	1892	
3	50	49	1893	
3	1429	1378	1379	
3	1429	1430	1378	
3	1487	1430	1429	
3	1487	1488	1430	
3	1545	1488	1487	
3	1545	1546	1488	
3	1603	1546	1545	
3	1603	1604	1546	
3	1661	1604	1603	
3	1661	1662	1604	
3	1719	1662	1661	
3	1719	1720	1662	
3	1777	1720	1719	
3	1777	1778	1720	
3	1835	1778	1777	
3	1835	1836	1778	
3	1893	1836	1835	
3	1893	1894	1836	
3	49	1894	1893	
3	49	48	1894	
3	1430	1377	1378	
3	1430	1431	1377	
3	1488	1431	1430	
3	1488	1489	1431	
3	1546	1489	1488	
3	1546	1547	1489	
3	1604	1547	1546	
3	1604	1605	1547	
3	1662	1605	1604	
3	1662	1663	1605	
3	1720	1663	1662	
3	1720	1721	1663	
3	1778	1721	1720	
3	1778	1779	1721	
3	1836	1779	1778	
3	1836	1837	1779	
3	1894	1837	1836	
3	1894	1895	1837	
3	48	1895	1894	
3	48	47	1895	
3	1431	1376	1377	
3	1431	1432	1376	
3	1489	1432	1431	
3	1489	1490	1432	
3	1547	1490	1489	
3	1547	1548	1490	
3	1605	1548	1547	
3	1605	1606	1548	
3	1663	1606	1605	
3	1663	1664	1606	
3	1721	1664	1663	
3	1721	1722	1664	
3	1779	1722	1721	
3	1779	1780	1722	
3	1837	1780	1779	
3	1837	1838	1780	
3	1895	1838	1837	
3	1895	1896	1838	
3	47	1896	1895	
3	47	46	1896	
3	1432	1375	1376	
3	1432	1433	1375	
3	1490	1433	1432	
3	1490	1491	1433	
3	1548	1491	1490	
3	1548	1549	1491	
3	1606	1549	1548	
3	1606	1607	1549	
3	1664	1607	1606	
3	1664	1665	1607	
3	1722	1665	1664	
3	1722	1723	1665	
3	1780	1723	1722	
3	1780	1781	1723	
3	1838	1781	1780	
3	1838	1839	1781	
3	1896	1839	1838	
3	1896	1897	1839	
3	46	1897	1896	
3	46	45	1897	
3	1433	1374	1375	
3	1433	1434	1374	
3	1491	1434	1433	
3	1491	1492	1434	
3	1549	1492	1491	
3	1549	1550	1492	
3	1607	1550	1549	
3	1607	1608	1550	
3	1665	1608	1607	
3	1665	1666	1608	
3	1723	1666	1665	
3	1723	1724	1666	
3	1781	1724	1723	
3	1781	1782	1724	
3	1839	1782	1781	
3	1839	1840	1782	
3	1897	1840	1839	
3	1897	1898	1840	
3	45	1898	1897	
3	45	44	1898	
3	1434	1373	1374	
3	1434	1435	1373	
3	1492	1435	1434	
3	1492	1493	1435	
3	1550	1493	1492	
3	1550	1551	1493	
3	1608	1551	1550	
3	1608	1609	1551	
3	1666	1609	1608	
3	1666	1667	1609	
3	1724	1667	1666	
3	1724	1725	1667	
3	1782	1725	1724	
3	1782	1783	1725	
3	1840	1783	1782	
3	1840	1841	1783	
3	1898	1841	1840	
3	1898	1899	1841	
3	44	1899	1898	
3	44	43	1899	
3	1435	1372	1373	
3	1435	1436	1372	
3	1493	1436	1435	
3	1493	1494	1436	
3	1551	1494	1493	
3	1551	1552	1494	
3	1609	1552	1551	
3	1609	1610	1552	
3	1667	1610	1609	
3	1667	1668	1610	
3	1725	1668	1667	
3	1725	1726	1668	
3	1783	1726	1725	
3	1783	1784	1726	
3	1841	1784	1783	
3	1841	1842	1784	
3	1899	1842	1841	
3	1899	1900	1842	
3	43	1900	1899	
3	43	42	1900	
3	1436	1371	1372	
3	1436	1437	1371	
3	1494	1437	1436	
3	1494	1495	1437	
3	1552	1495	1494	
3	1552	1553	1495	
3	1610	1553	1552	
3	1610	1611	1553	
3	1668	1611	1610	
3	1668	1669	1611	
3	1726	1669	1668	
3	1726	1727	1669	
3	1784	1727	1726	
3	1784	1785	1727	
3	1842	1785	1784	
3	1842	1843	1785	
3	1900	1843	1842	
3	1900	1901	1843	
3	42	1901	1900	
3	42	41	1901	
3	1437	1370	1371	
3	1437	1438	1370	
3	1495	1438	1437	
3	1495	1496	1438	
3	1553	1496	1495	
3	1553	1554	1496	
3	1611	1554	1553	
3	1611	1612	1554	
3	1669	1612	1611	
3	1669	1670	1612	
3	1727	1670	1669	
3	1727	1728	1670	
3	1785	1728	1727	
3	1785	1786	1728	
3	1843	1786	1785	
3	1843	1844	1786	
3	1901	1844	1843	
3	1901	1902	1844	
3	41	1902	1901	
3	41	40	1902	
3	1438	1369	1370	
3	1438	1439	1369	
3	1496	1439	1438	
3	1496	1497	1439	
3	1554	1497	1496	
3	1554	1555	1497	
3	1612	1555	1554	
3	1612	1613	1555	
3	1670	1613	1612	
3	1670	1671	1613	
3	1728	1671	1670	
3	1728	1729	1671	
3	1786	1729	1728	
3	1786	1787	1729	
3	1844	1787	1786	
3	1844	1845	1787	
3	1902	1845	1844	
3	1902	1903	1845	
3	40	1903	1902	
3	40	39	1903	
3	1439	1368	1369	
3	1439	1440	1368	
3	1497	1440	1439	
3	1497	1498	1440	
3	1555	1498	1497	
3	1555	1556	1498	
3	1613	1556	1555	
3	1613	1614	1556	
3	1671	1614	1613	
3	1671	1672	1614	
3	1729	1672	1671	
3	1729	1730	1672	
3	1787	1730	1729	
3	1787	1788	1730	
3	1845	1788	1787	
3	1845	1846	1788	
3	1903	1846	1845	
3	1903	1904	1846	
3	39	1904	1903	
3	39	38	1904	
3	1440	1367	1368	
3	1440	1441	1367	
3	1498	1441	1440	
3	1498	1499	1441	
3	1556	1499	1498	
3	1556	1557	1499	
3	1614	1557	1556	
3	1614	1615	1557	
3	1672	1615	1614	
3	1672	1673	1615	
3	1730	1673	1672	
3	1730	1731	1673	
3	1788	1731	1730	
3	1788	1789	1731	
3	1846	1789	1788	
3	1846	1847	1789	
3	1904	1847	1846	
3	1904	1905	1847	
3	38	1905	1904	
3	38	37	1905	
3	1441	1366	1367	
3	1441	1442	1366	
3	1499	1442	1441	
3	1499	1500	1442	
3	1557	1500	1499	
3	1557	1558	1500	
3	1615	1558	1557	
3	1615	1616	1558	
3	1673	1616	1615	
3	1673	1674	1616	
3	1731	1674	1673	
3	1731	1732	1674	
3	1789	1732	1731	
3	1789	1790	1732	
3	1847	1790	1789	
3	1847	1848	1790	
3	1905	1848	1847	
3	1905	1906	1848	
3	37	1906	1905	
3	37	36	1906	
3	1442	1365	1366	
3	1442	1443	1365	
3	1500	1443	1442	
3	1500	1501	1443	
3	1558	1501	1500	
3	1558	1559	1501	
3	1616	1559	1558	
3	1616	1617	1559	
3	1674	1617	1616	
3	1674	1675	1617	
3	1732	1675	1674	
3	1732	1733	1675	
3	1790	1733	1732	
3	1790	1791	1733	
3	1848	1791	1790	
3	1848	1849	1791	
3	1906	1849	1848	
3	1906	1907	1849	
3	36	1907	1906	
3	36	35	1907	
3	1443	1364	1365	
3	1443	1444	1364	
3	1501	1444	1443	
3	1501	1502	1444	
3	1559	1502	1501	
3	1559	1560	1502	
3	1617	1560	1559	
3	1617	1618	1560	
3	1675	1618	1617	
3	1675	1676	1618	
3	1733	1676	1675	
3	1733	1734	1676	
3	1791	1734	1733	
3	1791	1792	1734	
3	1849	1792	1791	
3	1849	1850	1792	
3	1907	1850	1849	
3	1907	1908	1850	
3	35	1908	1907	
3	35	34	1908	
3	1444	1363	1364	
3	1444	1445	1363	
3	1502	1445	1444	
3	1502	1503	1445	
3	1560	1503	1502	
3	1560	1561	1503	
3	1618	1561	1560	
3	1618	1619	1561	
3	1676	1619	1618	
3	1676	1677	1619	
3	1734	1677	1676	
3	1734	1735	1677	
3	1792	1735	1734	
3	1792	1793	1735	
3	1850	1793	1792	
3	1850	1851	1793	
3	1908	1851	1850	
3	1908	1909	1851	
3	34	1909	1908	
3	34	33	1909	
3	1445	1362	1363	
3	1445	1446	1362	
3	1503	1446	1445	
3	1503	1504	1446	
3	1561	1504	1503	
3	1561	1562	1504	
3	1619	1562	1561	
3	1619	1620	1562	
3	1677	1620	1619	
3	1677	1678	1620	
3	1735	1678	1677	
3	1735	1736	1678	
3	1793	1736	1735	
3	1793	1794	1736	
3	1851	1794	1793	
3	1851	1852	1794	
3	1909	1852	1851	
3	1909	1910	1852	
3	33	1910	1909	
3	33	32	1910	
3	1446	1361	1362	
3	1446	1447	1361	
3	1504	1447	1446	
3	1504	1505	1447	
3	1562	1505	1504	
3	1562	1563	1505	
3	1620	1563	1562	
3	1620	1621	1563	
3	1678	1621	1620	
3	1678	1679	1621	
3	1736	1679	1678	
3	1736	1737	1679	
3	1794	1737	1736	
3	1794	1795	1737	
3	1852	1795	1794	
3	1852	1853	1795	
3	1910	1853	1852	
3	1910	1911	1853	
3	32	1911	1910	
3	32	31	1911	
3	1447	1360	1361	
3	1447	1448	1360	
3	1505	1448	1447	
3	1505	1506	1448	
3	1563	1506	1505	
3	1563	1564	1506	
3	1621	1564	1563	
3	1621	1622	1564	
3	1679	1622	1621	
3	1679	1680	1622	
3	1737	1680	1679	
3	1737	1738	1680	
3	1795	1738	1737	
3	1795	1796	1738	
3	1853	1796	1795	
3	1853	1854	1796	
3	1911	1854	1853	
3	1911	1912	1854	
3	31	1912	1911	
3	31	30	1912	
3	1448	1359	1360	
3	1448	1449	1359	
3	1506	1449	1448	
3	1506	1507	1449	
3	1564	1507	1506	
3	1564	1565	1507	
3	1622	1565	1564	
3	1622	1623	1565	
3	1680	1623	1622	
3	1680	1681	1623	
3	1738	1681	1680	
3	1738	1739	1681	
3	1796	1739	1738	
3	1796	1797	1739	
3	1854	1797	1796	
3	1854	1855	1797	
3	1912	1855	1854	
3	1912	1913	1855	
3	30	1913	1912	
3	30	29	1913	
3	1449	1358	1359	
3	1449	1450	1358	
3	1507	1450	1449	
3	1507	1508	1450	
3	1565	1508	1507	
3	1565	1566	1508	
3	1623	1566	1565	
3	1623	1624	1566	
3	1681	1624	1623	
3	1681	1682	1624	
3	1739	1682	1681	
3	1739	1740	1682	
3	1797	1740	1739	
3	1797	1798	1740	
3	1855	1798	1797	
3	1855	1856	1798	
3	1913	1856	1855	
3	1913	1914	1856	
3	29	1914	1913	
3	29	28	1914	
3	1450	1357	1358	
3	1450	1451	1357	
3	1508	1451	1450	
3	1508	1509	1451	
3	1566	1509	1508	
3	1566	1567	1509	
3	1624	1567	1566	
3	1624	1625	1567	
3	1682	1625	1624	
3	1682	1683	1625	
3	1740	1683	1682	
3	1740	1741	1683	
3	1798	1741	1740	
3	1798	1799	1741	
3	1856	1799	1798	
3	1856	1857	1799	
3	1914	1857	1856	
3	1914	1915	1857	
3	28	1915	1914	
3	28	27	1915	
3	1451	1356	1357	
3	1451	1452	1356	
3	1509	1452	1451	
3	1509	1510	1452	
3	1567	1510	1509	
3	1567	1568	1510	
3	1625	1568	1567	
3	1625	1626	1568	
3	1683	1626	1625	
3	1683	1684	1626	
3	1741	1684	1683	
3	1741	1742	1684	
3	1799	1742	1741	
3	1799	1800	1742	
3	1857	1800	1799	
3	1857	1858	1800	
3	1915	1858	1857	
3	1915	1916	1858	
3	27	1916	1915	
3	27	26	1916	
3	1452	1355	1356	
3	1452	1453	1355	
3	1510	1453	1452	
3	1510	1511	1453	
3	1568	1511	1510	
3	1568	1569	1511	
3	1626	1569	1568	
3	1626	1627	1569	
3	1684	1627	1626	
3	1684	1685	1627	
3	1742	1685	1684	
3	1742	1743	1685	
3	1800	1743	1742	
3	1800	1801	1743	
3	1858	1801	1800	
3	1858	1859	1801	
3	1916	1859	1858	
3	1916	1917	1859	
3	26	1917	1916	
3	26	25	1917	
3	1453	1354	1355	
3	1453	1454	1354	
3	1511	1454	1453	
3	1511	1512	1454	
3	1569	1512	1511	
3	1569	1570	1512	
3	1627	1570	1569	
3	1627	1628	1570	
3	1685	1628	1627	
3	1685	1686	1628	
3	1743	1686	1685	
3	1743	1744	1686	
3	1801	1744	1743	
3	1801	1802	1744	
3	1859	1802	1801	
3	1859	1860	1802	
3	1917	1860	1859	
3	1917	1918	1860	
3	25	1918	1917	
3	25	24	1918	
3	1454	1353	1354	
3	1454	1455	1353	
3	1512	1455	1454	
3	1512	1513	1455	
3	1570	1513	1512	
3	1570	1571	1513	
3	1628	1571	1570	
3	1628	1629	1571	
3	1686	1629	1628	
3	1686	1687	1629	
3	1744	1687	1686	
3	1744	1745	1687	
3	1802	1745	1744	
3	1802	1803	1745	
3	1860	1803	1802	
3	1860	1861	1803	
3	1918	1861	1860	
3	1918	1919	1861	
3	24	1919	1918	
3	24	23	1919	
3	1455	1352	1353	
3	1455	1456	1352	
3	1513	1456	1455	
3	1513	1514	1456	
3	1571	1514	1513	
3	1571	1572	1514	
3	1629	1572	1571	
3	1629	1630	1572	
3	1687	1630	1629	
3	1687	1688	1630	
3	1745	1688	1687	
3	1745	1746	1688	
3	1803	1746	1745	
3	1803	1804	1746	
3	1861	1804	1803	
3	1861	1862	1804	
3	1919	1862	1861	
3	1919	1920	1862	
3	23	1920	1919	
3	23	22	1920	
3	1456	1351	1352	
3	1456	1457	1351	
3	1514	1457	1456	
3	1514	1515	1457	
3	1572	1515	1514	
3	1572	1573	1515	
3	1630	1573	1572	
3	1630	1631	1573	
3	1688	1631	1630	
3	1688	1689	1631	
3	1746	1689	1688	
3	1746	1747	1689	
3	1804	1747	1746	
3	1804	1805	1747	
3	1862	1805	1804	
3	1862	1863	1805	
3	1920	1863	1862	
3	1920	1921	1863	
3	22	1921	1920	
3	22	21	1921	
3	1457	1350	1351	
3	1457	1458	1350	
3	1515	1458	1457	
3	1515	1516	1458	
3	1573	1516	1515	
3	1573	1574	1516	
3	1631	1574	1573	
3	1631	1632	1574	
3	1689	1632	1631	
3	1689	1690	1632	
3	1747	1690	1689	
3	1747	1748	1690	
3	1805	1748	1747	
3	1805	1806	1748	
3	1863	1806	1805	
3	1863	1864	1806	
3	1921	1864	1863	
3	1921	1922	1864	
3	21	1922	1921	
3	21	20	1922	
3	1458	1349	1350	
3	1458	1459	1349	
3	1516	1459	1458	
3	1516	1517	1459	
3	1574	1517	1516	
3	1574	1575	1517	
3	1632	1575	1574	
3	1632	1633	1575	
3	1690	1633	1632	
3	1690	1691	1633	
3	1748	1691	1690	
3	1748	1749	1691	
3	1806	1749	1748	
3	1806	1807	1749	
3	1864	1807	1806	
3	1864	1865	1807	
3	1922	1865	1864	
3	1922	1923	1865	
3	20	1923	1922	
3	20	19	1923	
3	1459	1348	1349	
3	1459	1460	1348	
3	1517	1460	1459	
3	1517	1518	1460	
3	1575	1518	1517	
3	1575	1576	1518	
3	1633	1576	1575	
3	1633	1634	1576	
3	1691	1634	1633	
3	1691	1692	1634	
3	1749	1692	1691	
3	1749	1750	1692	
3	1807	1750	1749	
3	1807	1808	1750	
3	1865	1808	1807	
3	1865	1866	1808	
3	1923	1866	1865	
3	1923	1924	1866	
3	19	1924	1923	
3	19	18	1924	
3	1460	1347	1348	
3	1460	1461	1347	
3	1518	1461	1460	
3	1518	1519	1461	
3	1576	1519	1518	
3	1576	1577	1519	
3	1634	1577	1576	
3	1634	1635	1577	
3	1692	1635	1634	
3	1692	1693	1635	
3	1750	1693	1692	
3	1750	1751	1693	
3	1808	1751	1750	
3	1808	1809	1751	
3	1866	1809	1808	
3	1866	1867	1809	
3	1924	1867	1866	
3	1924	1925	1867	
3	18	1925	1924	
3	18	17	1925	
3	1461	1346	1347	
3	1461	1462	1346	
3	1519	1462	1461	
3	1519	1520	1462	
3	1577	1520	1519	
3	1577	1578	1520	
3	1635	1578	1577	
3	1635	1636	1578	
3	1693	1636	1635	
3	1693	1694	1636	
3	1751	1694	1693	
3	1751	1752	1694	
3	1809	1752	1751	
3	1809	1810	1752	
3	1867	1810	1809	
3	1867	1868	1810	
3	1925	1868	1867	
3	1925	1926	1868	
3	17	1926	1925	
3	17	16	1926	
3	1462	1345	1346	
3	1462	1463	1345	
3	1520	1463	1462	
3	1520	1521	1463	
3	1578	1521	1520	
3	1578	1579	1521	
3	1636	1579	1578	
3	1636	1637	1579	
3	1694	1637	1636	
3	1694	1695	1637	
3	1752	1695	1694	
3	1752	1753	1695	
3	1810	1753	1752	
3	1810	1811	1753	
3	1868	1811	1810	
3	1868	1869	1811	
3	1926	1869	1868	
3	1926	1927	1869	
3	16	1927	1926	
3	16	15	1927	
3	1463	1344	1345	
3	1463	1464	1344	
3	1521	1464	1463	
3	1521	1522	1464	
3	1579	1522	1521	
3	1579	1580	1522	
3	1637	1580	1579	
3	1637	1638	1580	
3	1695	1638	1637	
3	1695	1696	1638	
3	1753	1696	1695	
3	1753	1754	1696	
3	1811	1754	1753	
3	1811	1812	1754	
3	1869	1812	1811	
3	1869	1870	1812	
3	1927	1870	1869	
3	1927	1928	1870	
3	15	1928	1927	
3	15	14	1928	
3	1464	1343	1344	
3	1464	1465	1343	
3	1522	1465	1464	
3	1522	1523	1465	
3	1580	1523	1522	
3	1580	1581	1523	
3	1638	1581	1580	
3	1638	1639	1581	
3	1696	1639	1638	
3	1696	1697	1639	
3	1754	1697	1696	
3	1754	1755	1697	
3	1812	1755	1754	
3	1812	1813	1755	
3	1870	1813	1812	
3	1870	1871	1813	
3	1928	1871	1870	
3	1928	1929	1871	
3	14	1929	1928	
3	14	13	1929	
3	1465	1342	1343	
3	1465	1466	1342	
3	1523	1466	1465	
3	1523	1524	1466	
3	1581	1524	1523	
3	1581	1582	1524	
3	1639	1582	1581	
3	1639	1640	1582	
3	1697	1640	1639	
3	1697	1698	1640	
3	1755	1698	1697	
3	1755	1756	1698	
3	1813	1756	1755	
3	1813	1814	1756	
3	1871	1814	1813	
3	1871	1872	1814	
3	1929	1872	1871	
3	1929	1930	1872	
3	13	1930	1929	
3	13	12	1930	
3	1466	1331	1342	
3	1466	1340	1331	
3	1524	1340	1466	
3	1524	1339	1340	
3	1582	1339	1524	
3	1582	1338	1339	
3	1640	1338	1582	
3	1640	1337	1338	
3	1698	1337	1640	
3	1698	1336	1337	
3	1756	1336	1698	
3	1756	1335	1336	
3	1814	1335	1756	
3	1814	1334	1335	
3	1872	1334	1814	
3	1872	1333	1334	
3	1930	1333	1872	
3	1930	1332	1333	
3	12	1332	1930	
3	12	1	1332	
3	1941	1932	1931	
3	1941	1942	1932	
3	1940	1942	1941	
3	1940	1943	1942	
3	1939	1943	1940	
3	1939	1944	1943	
3	1938	1944	1939	
3	1938	1945	1944	
3	1937	1945	1938	
3	1937	1946	1945	
3	1936	1946	1937	
3	1936	1947	1946	
3	1935	1947	1936	
3	1935	1948	1947	
3	1934	1948	1935	
3	1934	1949	1948	
3	1933	1949	1934	
3	1933	1950	1949	
3	660	1950	1933	
3	660	661	1950	
3	1942	1341	1932	
3	1942	1408	1341	
3	1943	1408	1942	
3	1943	1407	1408	
3	1944	1407	1943	
3	1944	1406	1407	
3	1945	1406	1944	
3	1945	1405	1406	
3	1946	1405	1945	
3	1946	1404	1405	
3	1947	1404	1946	
3	1947	1403	1404	
3	1948	1403	1947	
3	1948	1402	1403	
3	1949	1402	1948	
3	1949	1401	1402	
3	1950	1401	1949	
3	1950	1400	1401	
3	661	1400	1950	
3	661	11	1400	
3	2018	2009	1951	
3	2018	2019	2009	
3	2017	2019	2018	
3	2017	2077	2019	
3	2016	2077	2017	
3	2016	2135	2077	
3	2015	2135	2016	
3	2015	2193	2135	
3	2014	2193	2015	
3	2014	2251	2193	
3	2013	2251	2014	
3	2013	2309	2251	
3	2012	2309	2013	
3	2012	2367	2309	
3	2011	2367	2012	
3	2011	2425	2367	
3	2010	2425	2011	
3	2010	2483	2425	
3	682	2483	2010	
3	682	740	2483	
3	2019	2008	2009	
3	2019	2020	2008	
3	2077	2020	2019	
3	2077	2078	2020	
3	2135	2078	2077	
3	2135	2136	2078	
3	2193	2136	2135	
3	2193	2194	2136	
3	2251	2194	2193	
3	2251	2252	2194	
3	2309	2252	2251	
3	2309	2310	2252	
3	2367	2310	2309	
3	2367	2368	2310	
3	2425	2368	2367	
3	2425	2426	2368	
3	2483	2426	2425	
3	2483	2484	2426	
3	740	2484	2483	
3	740	739	2484	
3	2020	2007	2008	
3	2020	2021	2007	
3	2078	2021	2020	
3	2078	2079	2021	
3	2136	2079	2078	
3	2136	2137	2079	
3	2194	2137	2136	
3	2194	2195	2137	
3	2252	2195	2194	
3	2252	2253	2195	
3	2310	2253	2252	
3	2310	2311	2253	
3	2368	2311	2310	
3	2368	2369	2311	
3	2426	2369	2368	
3	2426	2427	2369	
3	2484	2427	2426	
3	2484	2485	2427	
3	739	2485	2484	
3	739	738	2485	
3	2021	2006	2007	
3	2021	2022	2006	
3	2079	2022	2021	
3	2079	2080	2022	
3	2137	2080	2079	
3	2137	2138	2080	
3	2195	2138	2137	
3	2195	2196	2138	
3	2253	2196	2195	
3	2253	2254	2196	
3	2311	2254	2253	
3	2311	2312	2254	
3	2369	2312	2311	
3	2369	2370	2312	
3	2427	2370	2369	
3	2427	2428	2370	
3	2485	2428	2427	
3	2485	2486	2428	
3	738	2486	2485	
3	738	737	2486	
3	2022	2005	2006	
3	2022	2023	2005	
3	2080	2023	2022	
3	2080	2081	2023	
3	2138	2081	2080	
3	2138	2139	2081	
3	2196	2139	2138	
3	2196	2197	2139	
3	2254	2197	2196	
3	2254	2255	2197	
3	2312	2255	2254	
3	2312	2313	2255	
3	2370	2313	2312	
3	2370	2371	2313	
3	2428	2371	2370	
3	2428	2429	2371	
3	2486	2429	2428	
3	2486	2487	2429	
3	737	2487	2486	
3	737	736	2487	
3	2023	2004	2005	
3	2023	2024	2004	
3	2081	2024	2023	
3	2081	2082	2024	
3	2139	2082	2081	
3	2139	2140	2082	
3	2197	2140	2139	
3	2197	2198	2140	
3	2255	2198	2197	
3	2255	2256	2198	
3	2313	2256	2255	
3	2313	2314	2256	
3	2371	2314	2313	
3	2371	2372	2314	
3	2429	2372	2371	
3	2429	2430	2372	
3	2487	2430	2429	
3	2487	2488	2430	
3	736	2488	2487	
3	736	735	2488	
3	2024	2003	2004	
3	2024	2025	2003	
3	2082	2025	2024	
3	2082	2083	2025	
3	2140	2083	2082	
3	2140	2141	2083	
3	2198	2141	2140	
3	2198	2199	2141	
3	2256	2199	2198	
3	2256	2257	2199	
3	2314	2257	2256	
3	2314	2315	2257	
3	2372	2315	2314	
3	2372	2373	2315	
3	2430	2373	2372	
3	2430	2431	2373	
3	2488	2431	2430	
3	2488	2489	2431	
3	735	2489	2488	
3	735	734	2489	
3	2025	2002	2003	
3	2025	2026	2002	
3	2083	2026	2025	
3	2083	2084	2026	
3	2141	2084	2083	
3	2141	2142	2084	
3	2199	2142	2141	
3	2199	2200	2142	
3	2257	2200	2199	
3	2257	2258	2200	
3	2315	2258	2257	
3	2315	2316	2258	
3	2373	2316	2315	
3	2373	2374	2316	
3	2431	2374	2373	
3	2431	2432	2374	
3	2489	2432	2431	
3	2489	2490	2432	
3	734	2490	2489	
3	734	733	2490	
3	2026	2001	2002	
3	2026	2027	2001	
3	2084	2027	2026	
3	2084	2085	2027	
3	2142	2085	2084	
3	2142	2143	2085	
3	2200	2143	2142	
3	2200	2201	2143	
3	2258	2201	2200	
3	2258	2259	2201	
3	2316	2259	2258	
3	2316	2317	2259	
3	2374	2317	2316	
3	2374	2375	2317	
3	2432	2375	2374	
3	2432	2433	2375	
3	2490	2433	2432	
3	2490	2491	2433	
3	733	2491	2490	
3	733	732	2491	
3	2027	2000	2001	
3	2027	2028	2000	
3	2085	2028	2027	
3	2085	2086	2028	
3	2143	2086	2085	
3	2143	2144	2086	
3	2201	2144	2143	
3	2201	2202	2144	
3	2259	2202	2201	
3	2259	2260	2202	
3	2317	2260	2259	
3	2317	2318	2260	
3	2375	2318	2317	
3	2375	2376	2318	
3	2433	2376	2375	
3	2433	2434	2376	
3	2491	2434	2433	
3	2491	2492	2434	
3	732	2492	2491	
3	732	731	2492	
3	2028	1999	2000	
3	2028	2029	1999	
3	2086	2029	2028	
3	2086	2087	2029	
3	2144	2087	2086	
3	2144	2145	2087	
3	2202	2145	2144	
3	2202	2203	2145	
3	2260	2203	2202	
3	2260	2261	2203	
3	2318	2261	2260	
3	2318	2319	2261	
3	2376	2319	2318	
3	2376	2377	2319	
3	2434	2377	2376	
3	2434	2435	2377	
3	2492	2435	2434	
3	2492	2493	2435	
3	731	2493	2492	
3	731	730	2493	
3	2029	1998	1999	
3	2029	2030	1998	
3	2087	2030	2029	
3	2087	2088	2030	
3	2145	2088	2087	
3	2145	2146	2088	
3	2203	2146	2145	
3	2203	2204	2146	
3	2261	2204	2203	
3	2261	2262	2204	
3	2319	2262	2261	
3	2319	2320	2262	
3	2377	2320	2319	
3	2377	2378	2320	
3	2435	2378	2377	
3	2435	2436	2378	
3	2493	2436	2435	
3	2493	2494	2436	
3	730	2494	2493	
3	730	729	2494	
3	2030	1997	1998	
3	2030	2031	1997	
3	2088	2031	2030	
3	2088	2089	2031	
3	2146	2089	2088	
3	2146	2147	2089	
3	2204	2147	2146	
3	2204	2205	2147	
3	2262	2205	2204	
3	2262	2263	2205	
3	2320	2263	2262	
3	2320	2321	2263	
3	2378	2321	2320	
3	2378	2379	2321	
3	2436	2379	2378	
3	2436	2437	2379	
3	2494	2437	2436	
3	2494	2495	2437	
3	729	2495	2494	
3	729	728	2495	
3	2031	1996	1997	
3	2031	2032	1996	
3	2089	2032	2031	
3	2089	2090	2032	
3	2147	2090	2089	
3	2147	2148	2090	
3	2205	2148	2147	
3	2205	2206	2148	
3	2263	2206	2205	
3	2263	2264	2206	
3	2321	2264	2263	
3	2321	2322	2264	
3	2379	2322	2321	
3	2379	2380	2322	
3	2437	2380	2379	
3	2437	2438	2380	
3	2495	2438	2437	
3	2495	2496	2438	
3	728	2496	2495	
3	728	727	2496	
3	2032	1995	1996	
3	2032	2033	1995	
3	2090	2033	2032	
3	2090	2091	2033	
3	2148	2091	2090	
3	2148	2149	2091	
3	2206	2149	2148	
3	2206	2207	2149	
3	2264	2207	2206	
3	2264	2265	2207	
3	2322	2265	2264	
3	2322	2323	2265	
3	2380	2323	2322	
3	2380	2381	2323	
3	2438	2381	2380	
3	2438	2439	2381	
3	2496	2439	2438	
3	2496	2497	2439	
3	727	2497	2496	
3	727	726	2497	
3	2033	1994	1995	
3	2033	2034	1994	
3	2091	2034	2033	
3	2091	2092	2034	
3	2149	2092	2091	
3	2149	2150	2092	
3	2207	2150	2149	
3	2207	2208	2150	
3	2265	2208	2207	
3	2265	2266	2208	
3	2323	2266	2265	
3	2323	2324	2266	
3	2381	2324	2323	
3	2381	2382	2324	
3	2439	2382	2381	
3	2439	2440	2382	
3	2497	2440	2439	
3	2497	2498	2440	
3	726	2498	2497	
3	726	725	2498	
3	2034	1993	1994	
3	2034	2035	1993	
3	2092	2035	2034	
3	2092	2093	2035	
3	2150	2093	2092	
3	2150	2151	2093	
3	2208	2151	2150	
3	2208	2209	2151	
3	2266	2209	2208	
3	2266	2267	2209	
3	2324	2267	2266	
3	2324	2325	2267	
3	2382	2325	2324	
3	2382	2383	2325	
3	2440	2383	2382	
3	2440	2441	2383	
3	2498	2441	2440	
3	2498	2499	2441	
3	725	2499	2498	
3	725	724	2499	
3	2035	1992	1993	
3	2035	2036	1992	
3	2093	2036	2035	
3	2093	2094	2036	
3	2151	2094	2093	
3	2151	2152	2094	
3	2209	2152	2151	
3	2209	2210	2152	
3	2267	2210	2209	
3	2267	2268	2210	
3	2325	2268	2267	
3	2325	2326	2268	
3	2383	2326	2325	
3	2383	2384	2326	
3	2441	2384	2383	
3	2441	2442	2384	
3	2499	2442	2441	
3	2499	2500	2442	
3	724	2500	2499	
3	724	723	2500	
3	2036	1991	1992	
3	2036	2037	1991	
3	2094	2037	2036	
3	2094	2095	2037	
3	2152	2095	2094	
3	2152	2153	2095	
3	2210	2153	2152	
3	2210	2211	2153	
3	2268	2211	2210	
3	2268	2269	2211	
3	2326	2269	2268	
3	2326	2327	2269	
3	2384	2327	2326	
3	2384	2385	2327	
3	2442	2385	2384	
3	2442	2443	2385	
3	2500	2443	2442	
3	2500	2501	2443	
3	723	2501	2500	
3	723	722	2501	
3	2037	1990	1991	
3	2037	2038	1990	
3	2095	2038	2037	
3	2095	2096	2038	
3	2153	2096	2095	
3	2153	2154	2096	
3	2211	2154	2153	
3	2211	2212	2154	
3	2269	2212	2211	
3	2269	2270	2212	
3	2327	2270	2269	
3	2327	2328	2270	
3	2385	2328	2327	
3	2385	2386	2328	
3	2443	2386	2385	
3	2443	2444	2386	
3	2501	2444	2443	
3	2501	2502	2444	
3	722	2502	2501	
3	722	721	2502	
3	2038	1989	1990	
3	2038	2039	1989	
3	2096	2039	2038	
3	2096	2097	2039	
3	2154	2097	2096	
3	2154	2155	2097	
3	2212	2155	2154	
3	2212	2213	2155	
3	2270	2213	2212	
3	2270	2271	2213	
3	2328	2271	2270	
3	2328	2329	2271	
3	2386	2329	2328	
3	2386	2387	2329	
3	2444	2387	2386	
3	2444	2445	2387	
3	2502	2445	2444	
3	2502	2503	2445	
3	721	2503	2502	
3	721	720	2503	
3	2039	1988	1989	
3	2039	2040	1988	
3	2097	2040	2039	
3	2097	2098	2040	
3	2155	2098	2097	
3	2155	2156	2098	
3	2213	2156	2155	
3	2213	2214	2156	
3	2271	2214	2213	
3	2271	2272	2214	
3	2329	2272	2271	
3	2329	2330	2272	
3	2387	2330	2329	
3	2387	2388	2330	
3	2445	2388	2387	
3	2445	2446	2388	
3	2503	2446	2445	
3	2503	2504	2446	
3	720	2504	2503	
3	720	719	2504	
3	2040	1987	1988	
3	2040	2041	1987	
3	2098	2041	2040	
3	2098	2099	2041	
3	2156	2099	2098	
3	2156	2157	2099	
3	2214	2157	2156	
3	2214	2215	2157	
3	2272	2215	2214	
3	2272	2273	2215	
3	2330	2273	2272	
3	2330	2331	2273	
3	2388	2331	2330	
3	2388	2389	2331	
3	2446	2389	2388	
3	2446	2447	2389	
3	2504	2447	2446	
3	2504	2505	2447	
3	719	2505	2504	
3	719	718	2505	
3	2041	1986	1987	
3	2041	2042	1986	
3	2099	2042	2041	
3	2099	2100	2042	
3	2157	2100	2099	
3	2157	2158	2100	
3	2215	2158	2157	
3	2215	2216	2158	
3	2273	2216	2215	
3	2273	2274	2216	
3	2331	2274	2273	
3	2331	2332	2274	
3	2389	2332	2331	
3	2389	2390	2332	
3	2447	2390	2389	
3	2447	2448	2390	
3	2505	2448	2447	
3	2505	2506	2448	
3	718	2506	2505	
3	718	717	2506	
3	2042	1985	1986	
3	2042	2043	1985	
3	2100	2043	2042	
3	2100	2101	2043	
3	2158	2101	2100	
3	2158	2159	2101	
3	2216	2159	2158	
3	2216	2217	2159	
3	2274	2217	2216	
3	2274	2275	2217	
3	2332	2275	2274	
3	2332	2333	2275	
3	2390	2333	2332	
3	2390	2391	2333	
3	2448	2391	2390	
3	2448	2449	2391	
3	2506	2449	2448	
3	2506	2507	2449	
3	717	2507	2506	
3	717	716	2507	
3	2043	1984	1985	
3	2043	2044	1984	
3	2101	2044	2043	
3	2101	2102	2044	
3	2159	2102	2101	
3	2159	2160	2102	
3	2217	2160	2159	
3	2217	2218	2160	
3	2275	2218	2217	
3	2275	2276	2218	
3	2333	2276	2275	
3	2333	2334	2276	
3	2391	2334	2333	
3	2391	2392	2334	
3	2449	2392	2391	
3	2449	2450	2392	
3	2507	2450	2449	
3	2507	2508	2450	
3	716	2508	2507	
3	716	715	2508	
3	2044	1983	1984	
3	2044	2045	1983	
3	2102	2045	2044	
3	2102	2103	2045	
3	2160	2103	2102	
3	2160	2161	2103	
3	2218	2161	2160	
3	2218	2219	2161	
3	2276	2219	2218	
3	2276	2277	2219	
3	2334	2277	2276	
3	2334	2335	2277	
3	2392	2335	2334	
3	2392	2393	2335	
3	2450	2393	2392	
3	2450	2451	2393	
3	2508	2451	2450	
3	2508	2509	2451	
3	715	2509	2508	
3	715	714	2509	
3	2045	1982	1983	
3	2045	2046	1982	
3	2103	2046	2045	
3	2103	2104	2046	
3	2161	2104	2103	
3	2161	2162	2104	
3	2219	2162	2161	
3	2219	2220	2162	
3	2277	2220	2219	
3	2277	2278	2220	
3	2335	2278	2277	
3	2335	2336	2278	
3	2393	2336	2335	
3	2393	2394	2336	
3	2451	2394	2393	
3	2451	2452	2394	
3	2509	2452	2451	
3	2509	2510	2452	
3	714	2510	2509	
3	714	713	2510	
3	2046	1981	1982	
3	2046	2047	1981	
3	2104	2047	2046	
3	2104	2105	2047	
3	2162	2105	2104	
3	2162	2163	2105	
3	2220	2163	2162	
3	2220	2221	2163	
3	2278	2221	2220	
3	2278	2279	2221	
3	2336	2279	2278	
3	2336	2337	2279	
3	2394	2337	2336	
3	2394	2395	2337	
3	2452	2395	2394	
3	2452	2453	2395	
3	2510	2453	2452	
3	2510	2511	2453	
3	713	2511	2510	
3	713	712	2511	
3	2047	1980	1981	
3	2047	2048	1980	
3	2105	2048	2047	
3	2105	2106	2048	
3	2163	2106	2105	
3	2163	2164	2106	
3	2221	2164	2163	
3	2221	2222	2164	
3	2279	2222	2221	
3	2279	2280	2222	
3	2337	2280	2279	
3	2337	2338	2280	
3	2395	2338	2337	
3	2395	2396	2338	
3	2453	2396	2395	
3	2453	2454	2396	
3	2511	2454	2453	
3	2511	2512	2454	
3	712	2512	2511	
3	712	711	2512	
3	2048	1979	1980	
3	2048	2049	1979	
3	2106	2049	2048	
3	2106	2107	2049	
3	2164	2107	2106	
3	2164	2165	2107	
3	2222	2165	2164	
3	2222	2223	2165	
3	2280	2223	2222	
3	2280	2281	2223	
3	2338	2281	2280	
3	2338	2339	2281	
3	2396	2339	2338	
3	2396	2397	2339	
3	2454	2397	2396	
3	2454	2455	2397	
3	2512	2455	2454	
3	2512	2513	2455	
3	711	2513	2512	
3	711	710	2513	
3	2049	1978	1979	
3	2049	2050	1978	
3	2107	2050	2049	
3	2107	2108	2050	
3	2165	2108	2107	
3	2165	2166	2108	
3	2223	2166	2165	
3	2223	2224	2166	
3	2281	2224	2223	
3	2281	2282	2224	
3	2339	2282	2281	
3	2339	2340	2282	
3	2397	2340	2339	
3	2397	2398	2340	
3	2455	2398	2397	
3	2455	2456	2398	
3	2513	2456	2455	
3	2513	2514	2456	
3	710	2514	2513	
3	710	709	2514	
3	2050	1977	1978	
3	2050	2051	1977	
3	2108	2051	2050	
3	2108	2109	2051	
3	2166	2109	2108	
3	2166	2167	2109	
3	2224	2167	2166	
3	2224	2225	2167	
3	2282	2225	2224	
3	2282	2283	2225	
3	2340	2283	2282	
3	2340	2341	2283	
3	2398	2341	2340	
3	2398	2399	2341	
3	2456	2399	2398	
3	2456	2457	2399	
3	2514	2457	2456	
3	2514	2515	2457	
3	709	2515	2514	
3	709	708	2515	
3	2051	1976	1977	
3	2051	2052	1976	
3	2109	2052	2051	
3	2109	2110	2052	
3	2167	2110	2109	
3	2167	2168	2110	
3	2225	2168	2167	
3	2225	2226	2168	
3	2283	2226	2225	
3	2283	2284	2226	
3	2341	2284	2283	
3	2341	2342	2284	
3	2399	2342	2341	
3	2399	2400	2342	
3	2457	2400	2399	
3	2457	2458	2400	
3	2515	2458	2457	
3	2515	2516	2458	
3	708	2516	2515	
3	708	707	2516	
3	2052	1975	1976	
3	2052	2053	1975	
3	2110	2053	2052	
3	2110	2111	2053	
3	2168	2111	2110	
3	2168	2169	2111	
3	2226	2169	2168	
3	2226	2227	2169	
3	2284	2227	2226	
3	2284	2285	2227	
3	2342	2285	2284	
3	2342	2343	2285	
3	2400	2343	2342	
3	2400	2401	2343	
3	2458	2401	2400	
3	2458	2459	2401	
3	2516	2459	2458	
3	2516	2517	2459	
3	707	2517	2516	
3	707	706	2517	
3	2053	1974	1975	
3	2053	2054	1974	
3	2111	2054	2053	
3	2111	2112	2054	
3	2169	2112	2111	
3	2169	2170	2112	
3	2227	2170	2169	
3	2227	2228	2170	
3	2285	2228	2227	
3	2285	2286	2228	
3	2343	2286	2285	
3	2343	2344	2286	
3	2401	2344	2343	
3	2401	2402	2344	
3	2459	2402	2401	
3	2459	2460	2402	
3	2517	2460	2459	
3	2517	2518	2460	
3	706	2518	2517	
3	706	705	2518	
3	2054	1973	1974	
3	2054	2055	1973	
3	2112	2055	2054	
3	2112	2113	2055	
3	2170	2113	2112	
3	2170	2171	2113	
3	2228	2171	2170	
3	2228	2229	2171	
3	2286	2229	2228	
3	2286	2287	2229	
3	2344	2287	2286	
3	2344	2345	2287	
3	2402	2345	2344	
3	2402	2403	2345	
3	2460	2403	2402	
3	2460	2461	2403	
3	2518	2461	2460	
3	2518	2519	2461	
3	705	2519	2518	
3	705	704	2519	
3	2055	1972	1973	
3	2055	2056	1972	
3	2113	2056	2055	
3	2113	2114	2056	
3	2171	2114	2113	
3	2171	2172	2114	
3	2229	2172	2171	
3	2229	2230	2172	
3	2287	2230	2229	
3	2287	2288	2230	
3	2345	2288	2287	
3	2345	2346	2288	
3	2403	2346	2345	
3	2403	2404	2346	
3	2461	2404	2403	
3	2461	2462	2404	
3	2519	2462	2461	
3	2519	2520	2462	
3	704	2520	2519	
3	704	703	2520	
3	2056	1971	1972	
3	2056	2057	1971	
3	2114	2057	2056	
3	2114	2115	2057	
3	2172	2115	2114	
3	2172	2173	2115	
3	2230	2173	2172	
3	2230	2231	2173	
3	2288	2231	2230	
3	2288	2289	2231	
3	2346	2289	2288	
3	2346	2347	2289	
3	2404	2347	2346	
3	2404	2405	2347	
3	2462	2405	2404	
3	2462	2463	2405	
3	2520	2463	2462	
3	2520	2521	2463	
3	703	2521	2520	
3	703	702	2521	
3	2057	1970	1971	
3	2057	2058	1970	
3	2115	2058	2057	
3	2115	2116	2058	
3	2173	2116	2115	
3	2173	2174	2116	
3	2231	2174	2173	
3	2231	2232	2174	
3	2289	2232	2231	
3	2289	2290	2232	
3	2347	2290	2289	
3	2347	2348	2290	
3	2405	2348	2347	
3	2405	2406	2348	
3	2463	2406	2405	
3	2463	2464	2406	
3	2521	2464	2463	
3	2521	2522	2464	
3	702	2522	2521	
3	702	701	2522	
3	2058	1969	1970	
3	2058	2059	1969	
3	2116	2059	2058	
3	2116	2117	2059	
3	2174	2117	2116	
3	2174	2175	2117	
3	2232	2175	2174	
3	2232	2233	2175	
3	2290	2233	2232	
3	2290	2291	2233	
3	2348	2291	2290	
3	2348	2349	2291	
3	2406	2349	2348	
3	2406	2407	2349	
3	2464	2407	2406	
3	2464	2465	2407	
3	2522	2465	2464	
3	2522	2523	2465	
3	701	2523	2522	
3	701	700	2523	
3	2059	1968	1969	
3	2059	2060	1968	
3	2117	2060	2059	
3	2117	2118	2060	
3	2175	2118	2117	
3	2175	2176	2118	
3	2233	2176	2175	
3	2233	2234	2176	
3	2291	2234	2233	
3	2291	2292	2234	
3	2349	2292	2291	
3	2349	2350	2292	
3	2407	2350	2349	
3	2407	2408	2350	
3	2465	2408	2407	
3	2465	2466	2408	
3	2523	2466	2465	
3	2523	2524	2466	
3	700	2524	2523	
3	700	699	2524	
3	2060	1967	1968	
3	2060	2061	1967	
3	2118	2061	2060	
3	2118	2119	2061	
3	2176	2119	2118	
3	2176	2177	2119	
3	2234	2177	2176	
3	2234	2235	2177	
3	2292	2235	2234	
3	2292	2293	2235	
3	2350	2293	2292	
3	2350	2351	2293	
3	2408	2351	2350	
3	2408	2409	2351	
3	2466	2409	2408	
3	2466	2467	2409	
3	2524	2467	2466	
3	2524	2525	2467	
3	699	2525	2524	
3	699	698	2525	
3	2061	1966	1967	
3	2061	2062	1966	
3	2119	2062	2061	
3	2119	2120	2062	
3	2177	2120	2119	
3	2177	2178	2120	
3	2235	2178	2177	
3	2235	2236	2178	
3	2293	2236	2235	
3	2293	2294	2236	
3	2351	2294	2293	
3	2351	2352	2294	
3	2409	2352	2351	
3	2409	2410	2352	
3	2467	2410	2409	
3	2467	2468	2410	
3	2525	2468	2467	
3	2525	2526	2468	
3	698	2526	2525	
3	698	697	2526	
3	2062	1965	1966	
3	2062	2063	1965	
3	2120	2063	2062	
3	2120	2121	2063	
3	2178	2121	2120	
3	2178	2179	2121	
3	2236	2179	2178	
3	2236	2237	2179	
3	2294	2237	2236	
3	2294	2295	2237	
3	2352	2295	2294	
3	2352	2353	2295	
3	2410	2353	2352	
3	2410	2411	2353	
3	2468	2411	2410	
3	2468	2469	2411	
3	2526	2469	2468	
3	2526	2527	2469	
3	697	2527	2526	
3	697	696	2527	
3	2063	1964	1965	
3	2063	2064	1964	
3	2121	2064	2063	
3	2121	2122	2064	
3	2179	2122	2121	
3	2179	2180	2122	
3	2237	2180	2179	
3	2237	2238	2180	
3	2295	2238	2237	
3	2295	2296	2238	
3	2353	2296	2295	
3	2353	2354	2296	
3	2411	2354	2353	
3	2411	2412	2354	
3	2469	2412	2411	
3	2469	2470	2412	
3	2527	2470	2469	
3	2527	2528	2470	
3	696	2528	2527	
3	696	695	2528	
3	2064	1963	1964	
3	2064	2065	1963	
3	2122	2065	2064	
3	2122	2123	2065	
3	2180	2123	2122	
3	2180	2181	2123	
3	2238	2181	2180	
3	2238	2239	2181	
3	2296	2239	2238	
3	2296	2297	2239	
3	2354	2297	2296	
3	2354	2355	2297	
3	2412	2355	2354	
3	2412	2413	2355	
3	2470	2413	2412	
3	2470	2471	2413	
3	2528	2471	2470	
3	2528	2529	2471	
3	695	2529	2528	
3	695	694	2529	
3	2065	1962	1963	
3	2065	2066	1962	
3	2123	2066	2065	
3	2123	2124	2066	
3	2181	2124	2123	
3	2181	2182	2124	
3	2239	2182	2181	
3	2239	2240	2182	
3	2297	2240	2239	
3	2297	2298	2240	
3	2355	2298	2297	
3	2355	2356	2298	
3	2413	2356	2355	
3	2413	2414	2356	
3	2471	2414	2413	
3	2471	2472	2414	
3	2529	2472	2471	
3	2529	2530	2472	
3	694	2530	2529	
3	694	693	2530	
3	2066	1961	1962	
3	2066	2067	1961	
3	2124	2067	2066	
3	2124	2125	2067	
3	2182	2125	2124	
3	2182	2183	2125	
3	2240	2183	2182	
3	2240	2241	2183	
3	2298	2241	2240	
3	2298	2299	2241	
3	2356	2299	2298	
3	2356	2357	2299	
3	2414	2357	2356	
3	2414	2415	2357	
3	2472	2415	2414	
3	2472	2473	2415	
3	2530	2473	2472	
3	2530	2531	2473	
3	693	2531	2530	
3	693	692	2531	
3	2067	1960	1961	
3	2067	2068	1960	
3	2125	2068	2067	
3	2125	2126	2068	
3	2183	2126	2125	
3	2183	2184	2126	
3	2241	2184	2183	
3	2241	2242	2184	
3	2299	2242	2241	
3	2299	2300	2242	
3	2357	2300	2299	
3	2357	2358	2300	
3	2415	2358	2357	
3	2415	2416	2358	
3	2473	2416	2415	
3	2473	2474	2416	
3	2531	2474	2473	
3	2531	2532	2474	
3	692	2532	2531	
3	692	691	2532	
3	2068	1959	1960	
3	2068	2069	1959	
3	2126	2069	2068	
3	2126	2127	2069	
3	2184	2127	2126	
3	2184	2185	2127	
3	2242	2185	2184	
3	2242	2243	2185	
3	2300	2243	2242	
3	2300	2301	2243	
3	2358	2301	2300	
3	2358	2359	2301	
3	2416	2359	2358	
3	2416	2417	2359	
3	2474	2417	2416	
3	2474	2475	2417	
3	2532	2475	2474	
3	2532	2533	2475	
3	691	2533	2532	
3	691	690	2533	
3	2069	1958	1959	
3	2069	2070	1958	
3	2127	2070	2069	
3	2127	2128	2070	
3	2185	2128	2127	
3	2185	2186	2128	
3	2243	2186	2185	
3	2243	2244	2186	
3	2301	2244	2243	
3	2301	2302	2244	
3	2359	2302	2301	
3	2359	2360	2302	
3	2417	2360	2359	
3	2417	2418	2360	
3	2475	2418	2417	
3	2475	2476	2418	
3	2533	2476	2475	
3	2533	2534	2476	
3	690	2534	2533	
3	690	689	2534	
3	2070	1957	1958	
3	2070	2071	1957	
3	2128	2071	2070	
3	2128	2129	2071	
3	2186	2129	2128	
3	2186	2187	2129	
3	2244	2187	2186	
3	2244	2245	2187	
3	2302	2245	2244	
3	2302	2303	2245	
3	2360	2303	2302	
3	2360	2361	2303	
3	2418	2361	2360	
3	2418	2419	2361	
3	2476	2419	2418	
3	2476	2477	2419	
3	2534	2477	2476	
3	2534	2535	2477	
3	689	2535	2534	
3	689	688	2535	
3	2071	1956	1957	
3	2071	2072	1956	
3	2129	2072	2071	
3	2129	2130	2072	
3	2187	2130	2129	
3	2187	2188	2130	
3	2245	2188	2187	
3	2245	2246	2188	
3	2303	2246	2245	
3	2303	2304	2246	
3	2361	2304	2303	
3	2361	2362	2304	
3	2419	2362	2361	
3	2419	2420	2362	
3	2477	2420	2419	
3	2477	2478	2420	
3	2535	2478	2477	
3	2535	2536	2478	
3	688	2536	2535	
3	688	687	2536	
3	2072	1955	1956	
3	2072	2073	1955	
3	2130	2073	2072	
3	2130	2131	2073	
3	2188	2131	2130	
3	2188	2189	2131	
3	2246	2189	2188	
3	2246	2247	2189	
3	2304	2247	2246	
3	2304	2305	2247	
3	2362	2305	2304	
3	2362	2363	2305	
3	2420	2363	2362	
3	2420	2421	2363	
3	2478	2421	2420	
3	2478	2479	2421	
3	2536	2479	2478	
3	2536	2537	2479	
3	687	2537	2536	
3	687	686	2537	
3	2073	1954	1955	
3	2073	2074	1954	
3	2131	2074	2073	
3	2131	2132	2074	
3	2189	2132	2131	
3	2189	2190	2132	
3	2247	2190	2189	
3	2247	2248	2190	
3	2305	2248	2247	
3	2305	2306	2248	
3	2363	2306	2305	
3	2363	2364	2306	
3	2421	2364	2363	
3	2421	2422	2364	
3	2479	2422	2421	
3	2479	2480	2422	
3	2537	2480	2479	
3	2537	2538	2480	
3	686	2538	2537	
3	686	685	2538	
3	2074	1953	1954	
3	2074	2075	1953	
3	2132	2075	2074	
3	2132	2133	2075	
3	2190	2133	2132	
3	2190	2191	2133	
3	2248	2191	2190	
3	2248	2249	2191	
3	2306	2249	2248	
3	2306	2307	2249	
3	2364	2307	2306	
3	2364	2365	2307	
3	2422	2365	2364	
3	2422	2423	2365	
3	2480	2423	2422	
3	2480	2481	2423	
3	2538	2481	2480	
3	2538	2539	2481	
3	685	2539	2538	
3	685	684	2539	
3	2075	1952	1953	
3	2075	2076	1952	
3	2133	2076	2075	
3	2133	2134	2076	
3	2191	2134	2133	
3	2191	2192	2134	
3	2249	2192	2191	
3	2249	2250	2192	
3	2307	2250	2249	
3	2307	2308	2250	
3	2365	2308	2307	
3	2365	2366	2308	
3	2423	2366	2365	
3	2423	2424	2366	
3	2481	2424	2423	
3	2481	2482	2424	
3	2539	2482	2481	
3	2539	2540	2482	
3	684	2540	2539	
3	684	683	2540	
3	2076	1931	1952	
3	2076	1941	1931	
3	2134	1941	2076	
3	2134	1940	1941	
3	2192	1940	2134	
3	2192	1939	1940	
3	2250	1939	2192	
3	2250	1938	1939	
3	2308	1938	2250	
3	2308	1937	1938	
3	2366	1937	2308	
3	2366	1936	1937	
3	2424	1936	2366	
3	2424	1935	1936	
3	2482	1935	2424	
3	2482	1934	1935	
3	2540	1934	2482	
3	2540	1933	1934	
3	683	1933	2540	
3	683	660	1933	
3	2618	2609	2551	
3	2618	2619	2609	
3	2617	2619	2618	
3	2617	2677	2619	
3	2616	2677	2617	
3	2616	2735	2677	
3	2615	2735	2616	
3	2615	2793	2735	
3	2614	2793	2615	
3	2614	2851	2793	
3	2613	2851	2614	
3	2613	2909	2851	
3	2612	2909	2613	
3	2612	2967	2909	
3	2611	2967	2612	
3	2611	3025	2967	
3	2610	3025	2611	
3	2610	3083	3025	
3	1341	3083	2610	
3	1341	1399	3083	
3	2619	2608	2609	
3	2619	2620	2608	
3	2677	2620	2619	
3	2677	2678	2620	
3	2735	2678	2677	
3	2735	2736	2678	
3	2793	2736	2735	
3	2793	2794	2736	
3	2851	2794	2793	
3	2851	2852	2794	
3	2909	2852	2851	
3	2909	2910	2852	
3	2967	2910	2909	
3	2967	2968	2910	
3	3025	2968	2967	
3	3025	3026	2968	
3	3083	3026	3025	
3	3083	3084	3026	
3	1399	3084	3083	
3	1399	1398	3084	
3	2620	2607	2608	
3	2620	2621	2607	
3	2678	2621	2620	
3	2678	2679	2621	
3	2736	2679	2678	
3	2736	2737	2679	
3	2794	2737	2736	
3	2794	2795	2737	
3	2852	2795	2794	
3	2852	2853	2795	
3	2910	2853	2852	
3	2910	2911	2853	
3	2968	2911	2910	
3	2968	2969	2911	
3	3026	2969	2968	
3	3026	3027	2969	
3	3084	3027	3026	
3	3084	3085	3027	
3	1398	3085	3084	
3	1398	1397	3085	
3	2621	2606	2607	
3	2621	2622	2606	
3	2679	2622	2621	
3	2679	2680	2622	
3	2737	2680	2679	
3	2737	2738	2680	
3	2795	2738	2737	
3	2795	2796	2738	
3	2853	2796	2795	
3	2853	2854	2796	
3	2911	2854	2853	
3	2911	2912	2854	
3	2969	2912	2911	
3	2969	2970	2912	
3	3027	2970	2969	
3	3027	3028	2970	
3	3085	3028	3027	
3	3085	3086	3028	
3	1397	3086	3085	
3	1397	1396	3086	
3	2622	2605	2606	
3	2622	2623	2605	
3	2680	2623	2622	
3	2680	2681	2623	
3	2738	2681	2680	
3	2738	2739	2681	
3	2796	2739	2738	
3	2796	2797	2739	
3	2854	2797	2796	
3	2854	2855	2797	
3	2912	2855	2854	
3	2912	2913	2855	
3	2970	2913	2912	
3	2970	2971	2913	
3	3028	2971	2970	
3	3028	3029	2971	
3	3086	3029	3028	
3	3086	3087	3029	
3	1396	3087	3086	
3	1396	1395	3087	
3	2623	2604	2605	
3	2623	2624	2604	
3	2681	2624	2623	
3	2681	2682	2624	
3	2739	2682	2681	
3	2739	2740	2682	
3	2797	2740	2739	
3	2797	2798	2740	
3	2855	2798	2797	
3	2855	2856	2798	
3	2913	2856	2855	
3	2913	2914	2856	
3	2971	2914	2913	
3	2971	2972	2914	
3	3029	2972	2971	
3	3029	3030	2972	
3	3087	3030	3029	
3	3087	3088	3030	
3	1395	3088	3087	
3	1395	1394	3088	
3	2624	2603	2604	
3	2624	2625	2603	
3	2682	2625	2624	
3	2682	2683	2625	
3	2740	2683	2682	
3	2740	2741	2683	
3	2798	2741	2740	
3	2798	2799	2741	
3	2856	2799	2798	
3	2856	2857	2799	
3	2914	2857	2856	
3	2914	2915	2857	
3	2972	2915	2914	
3	2972	2973	2915	
3	3030	2973	2972	
3	3030	3031	2973	
3	3088	3031	3030	
3	3088	3089	3031	
3	1394	3089	3088	
3	1394	1393	3089	
3	2625	2602	2603	
3	2625	2626	2602	
3	2683	2626	2625	
3	2683	2684	2626	
3	2741	2684	2683	
3	2741	2742	2684	
3	2799	2742	2741	
3	2799	2800	2742	
3	2857	2800	2799	
3	2857	2858	2800	
3	2915	2858	2857	
3	2915	2916	2858	
3	2973	2916	2915	
3	2973	2974	2916	
3	3031	2974	2973	
3	3031	3032	2974	
3	3089	3032	3031	
3	3089	3090	3032	
3	1393	3090	3089	
3	1393	1392	3090	
3	2626	2601	2602	
3	2626	2627	2601	
3	2684	2627	2626	
3	2684	2685	2627	
3	2742	2685	2684	
3	2742	2743	2685	
3	2800	2743	2742	
3	2800	2801	2743	
3	2858	2801	2800	
3	2858	2859	2801	
3	2916	2859	2858	
3	2916	2917	2859	
3	2974	2917	2916	
3	2974	2975	2917	
3	3032	2975	2974	
3	3032	3033	2975	
3	3090	3033	3032	
3	3090	3091	3033	
3	1392	3091	3090	
3	1392	1391	3091	
3	2627	2600	2601	
3	2627	2628	2600	
3	2685	2628	2627	
3	2685	2686	2628	
3	2743	2686	2685	
3	2743	2744	2686	
3	2801	2744	2743	
3	2801	2802	2744	
3	2859	2802	2801	
3	2859	2860	2802	
3	2917	2860	2859	
3	2917	2918	2860	
3	2975	2918	2917	
3	2975	2976	2918	
3	3033	2976	2975	
3	3033	3034	2976	
3	3091	3034	3033	
3	3091	3092	3034	
3	1391	3092	3091	
3	1391	1390	3092	
3	2628	2599	2600	
3	2628	2629	2599	
3	2686	2629	2628	
3	2686	2687	2629	
3	2744	2687	2686	
3	2744	2745	2687	
3	2802	2745	2744	
3	2802	2803	2745	
3	2860	2803	2802	
3	2860	2861	2803	
3	2918	2861	2860	
3	2918	2919	2861	
3	2976	2919	2918	
3	2976	2977	2919	
3	3034	2977	2976	
3	3034	3035	2977	
3	3092	3035	3034	
3	3092	3093	3035	
3	1390	3093	3092	
3	1390	1389	3093	
3	2629	2598	2599	
3	2629	2630	2598	
3	2687	2630	2629	
3	2687	2688	2630	
3	2745	2688	2687	
3	2745	2746	2688	
3	2803	2746	2745	
3	2803	2804	2746	
3	2861	2804	2803	
3	2861	2862	2804	
3	2919	2862	2861	
3	2919	2920	2862	
3	2977	2920	2919	
3	2977	2978	2920	
3	3035	2978	2977	
3	3035	3036	2978	
3	3093	3036	3035	
3	3093	3094	3036	
3	1389	3094	3093	
3	1389	1388	3094	
3	2630	2597	2598	
3	2630	2631	2597	
3	2688	2631	2630	
3	2688	2689	2631	
3	2746	2689	2688	
3	2746	2747	2689	
3	2804	2747	2746	
3	2804	2805	2747	
3	2862	2805	2804	
3	2862	2863	2805	
3	2920	2863	2862	
3	2920	2921	2863	
3	2978	2921	2920	
3	2978	2979	2921	
3	3036	2979	2978	
3	3036	3037	2979	
3	3094	3037	3036	
3	3094	3095	3037	
3	1388	3095	3094	
3	1388	1387	3095	
3	2631	2596	2597	
3	2631	2632	2596	
3	2689	2632	2631	
3	2689	2690	2632	
3	2747	2690	2689	
3	2747	2748	2690	
3	2805	2748	2747	
3	2805	2806	2748	
3	2863	2806	2805	
3	2863	2864	2806	
3	2921	2864	2863	
3	2921	2922	2864	
3	2979	2922	2921	
3	2979	2980	2922	
3	3037	2980	2979	
3	3037	3038	2980	
3	3095	3038	3037	
3	3095	3096	3038	
3	1387	3096	3095	
3	1387	1386	3096	
3	2632	2595	2596	
3	2632	2633	2595	
3	2690	2633	2632	
3	2690	2691	2633	
3	2748	2691	2690	
3	2748	2749	2691	
3	2806	2749	2748	
3	2806	2807	2749	
3	2864	2807	2806	
3	2864	2865	2807	
3	2922	2865	2864	
3	2922	2923	2865	
3	2980	2923	2922	
3	2980	2981	2923	
3	3038	2981	2980	
3	3038	3039	2981	
3	3096	3039	3038	
3	3096	3097	3039	
3	1386	3097	3096	
3	1386	1385	3097	
3	2633	2594	2595	
3	2633	2634	2594	
3	2691	2634	2633	
3	2691	2692	2634	
3	2749	2692	2691	
3	2749	2750	2692	
3	2807	2750	2749	
3	2807	2808	2750	
3	2865	2808	2807	
3	2865	2866	2808	
3	2923	2866	2865	
3	2923	2924	2866	
3	2981	2924	2923	
3	2981	2982	2924	
3	3039	2982	2981	
3	3039	3040	2982	
3	3097	3040	3039	
3	3097	3098	3040	
3	1385	3098	3097	
3	1385	1384	3098	
3	2634	2593	2594	
3	2634	2635	2593	
3	2692	2635	2634	
3	2692	2693	2635	
3	2750	2693	2692	
3	2750	2751	2693	
3	2808	2751	2750	
3	2808	2809	2751	
3	2866	2809	2808	
3	2866	2867	2809	
3	2924	2867	2866	
3	2924	2925	2867	
3	2982	2925	2924	
3	2982	2983	2925	
3	3040	2983	2982	
3	3040	3041	2983	
3	3098	3041	3040	
3	3098	3099	3041	
3	1384	3099	3098	
3	1384	1383	3099	
3	2635	2592	2593	
3	2635	2636	2592	
3	2693	2636	2635	
3	2693	2694	2636	
3	2751	2694	2693	
3	2751	2752	2694	
3	2809	2752	2751	
3	2809	2810	2752	
3	2867	2810	2809	
3	2867	2868	2810	
3	2925	2868	2867	
3	2925	2926	2868	
3	2983	2926	2925	
3	2983	2984	2926	
3	3041	2984	2983	
3	3041	3042	2984	
3	3099	3042	3041	
3	3099	3100	3042	
3	1383	3100	3099	
3	1383	1382	3100	
3	2636	2591	2592	
3	2636	2637	2591	
3	2694	2637	2636	
3	2694	2695	2637	
3	2752	2695	2694	
3	2752	2753	2695	
3	2810	2753	2752	
3	2810	2811	2753	
3	2868	2811	2810	
3	2868	2869	2811	
3	2926	2869	2868	
3	2926	2927	2869	
3	2984	2927	2926	
3	2984	2985	2927	
3	3042	2985	2984	
3	3042	3043	2985	
3	3100	3043	3042	
3	3100	3101	3043	
3	1382	3101	3100	
3	1382	1381	3101	
3	2637	2590	2591	
3	2637	2638	2590	
3	2695	2638	2637	
3	2695	2696	2638	
3	2753	2696	2695	
3	2753	2754	2696	
3	2811	2754	2753	
3	2811	2812	2754	
3	2869	2812	2811	
3	2869	2870	2812	
3	2927	2870	2869	
3	2927	2928	2870	
3	2985	2928	2927	
3	2985	2986	2928	
3	3043	2986	2985	
3	3043	3044	2986	
3	3101	3044	3043	
3	3101	3102	3044	
3	1381	3102	3101	
3	1381	1380	3102	
3	2638	2589	2590	
3	2638	2639	2589	
3	2696	2639	2638	
3	2696	2697	2639	
3	2754	2697	2696	
3	2754	2755	2697	
3	2812	2755	2754	
3	2812	2813	2755	
3	2870	2813	2812	
3	2870	2871	2813	
3	2928	2871	2870	
3	2928	2929	2871	
3	2986	2929	2928	
3	2986	2987	2929	
3	3044	2987	2986	
3	3044	3045	2987	
3	3102	3045	3044	
3	3102	3103	3045	
3	1380	3103	3102	
3	1380	1379	3103	
3	2639	2588	2589	
3	2639	2640	2588	
3	2697	2640	2639	
3	2697	2698	2640	
3	2755	2698	2697	
3	2755	2756	2698	
3	2813	2756	2755	
3	2813	2814	2756	
3	2871	2814	2813	
3	2871	2872	2814	
3	2929	2872	2871	
3	2929	2930	2872	
3	2987	2930	2929	
3	2987	2988	2930	
3	3045	2988	2987	
3	3045	3046	2988	
3	3103	3046	3045	
3	3103	3104	3046	
3	1379	3104	3103	
3	1379	1378	3104	
3	2640	2587	2588	
3	2640	2641	2587	
3	2698	2641	2640	
3	2698	2699	2641	
3	2756	2699	2698	
3	2756	2757	2699	
3	2814	2757	2756	
3	2814	2815	2757	
3	2872	2815	2814	
3	2872	2873	2815	
3	2930	2873	2872	
3	2930	2931	2873	
3	2988	2931	2930	
3	2988	2989	2931	
3	3046	2989	2988	
3	3046	3047	2989	
3	3104	3047	3046	
3	3104	3105	3047	
3	1378	3105	3104	
3	1378	1377	3105	
3	2641	2586	2587	
3	2641	2642	2586	
3	2699	2642	2641	
3	2699	2700	2642	
3	2757	2700	2699	
3	2757	2758	2700	
3	2815	2758	2757	
3	2815	2816	2758	
3	2873	2816	2815	
3	2873	2874	2816	
3	2931	2874	2873	
3	2931	2932	2874	
3	2989	2932	2931	
3	2989	2990	2932	
3	3047	2990	2989	
3	3047	3048	2990	
3	3105	3048	3047	
3	3105	3106	3048	
3	1377	3106	3105	
3	1377	1376	3106	
3	2642	2585	2586	
3	2642	2643	2585	
3	2700	2643	2642	
3	2700	2701	2643	
3	2758	2701	2700	
3	2758	2759	2701	
3	2816	2759	2758	
3	2816	2817	2759	
3	2874	2817	2816	
3	2874	2875	2817	
3	2932	2875	2874	
3	2932	2933	2875	
3	2990	2933	2932	
3	2990	2991	2933	
3	3048	2991	2990	
3	3048	3049	2991	
3	3106	3049	3048	
3	3106	3107	3049	
3	1376	3107	3106	
3	1376	1375	3107	
3	2643	2584	2585	
3	2643	2644	2584	
3	2701	2644	2643	
3	2701	2702	2644	
3	2759	2702	2701	
3	2759	2760	2702	
3	2817	2760	2759	
3	2817	2818	2760	
3	2875	2818	2817	
3	2875	2876	2818	
3	2933	2876	2875	
3	2933	2934	2876	
3	2991	2934	2933	
3	2991	2992	2934	
3	3049	2992	2991	
3	3049	3050	2992	
3	3107	3050	3049	
3	3107	3108	3050	
3	1375	3108	3107	
3	1375	1374	3108	
3	2644	2583	2584	
3	2644	2645	2583	
3	2702	2645	2644	
3	2702	2703	2645	
3	2760	2703	2702	
3	2760	2761	2703	
3	2818	2761	2760	
3	2818	2819	2761	
3	2876	2819	2818	
3	2876	2877	2819	
3	2934	2877	2876	
3	2934	2935	2877	
3	2992	2935	2934	
3	2992	2993	2935	
3	3050	2993	2992	
3	3050	3051	2993	
3	3108	3051	3050	
3	3108	3109	3051	
3	1374	3109	3108	
3	1374	1373	3109	
3	2645	2582	2583	
3	2645	2646	2582	
3	2703	2646	2645	
3	2703	2704	2646	
3	2761	2704	2703	
3	2761	2762	2704	
3	2819	2762	2761	
3	2819	2820	2762	
3	2877	2820	2819	
3	2877	2878	2820	
3	2935	2878	2877	
3	2935	2936	2878	
3	2993	2936	2935	
3	2993	2994	2936	
3	3051	2994	2993	
3	3051	3052	2994	
3	3109	3052	3051	
3	3109	3110	3052	
3	1373	3110	3109	
3	1373	1372	3110	
3	2646	2581	2582	
3	2646	2647	2581	
3	2704	2647	2646	
3	2704	2705	2647	
3	2762	2705	2704	
3	2762	2763	2705	
3	2820	2763	2762	
3	2820	2821	2763	
3	2878	2821	2820	
3	2878	2879	2821	
3	2936	2879	2878	
3	2936	2937	2879	
3	2994	2937	2936	
3	2994	2995	2937	
3	3052	2995	2994	
3	3052	3053	2995	
3	3110	3053	3052	
3	3110	3111	3053	
3	1372	3111	3110	
3	1372	1371	3111	
3	2647	2580	2581	
3	2647	2648	2580	
3	2705	2648	2647	
3	2705	2706	2648	
3	2763	2706	2705	
3	2763	2764	2706	
3	2821	2764	2763	
3	2821	2822	2764	
3	2879	2822	2821	
3	2879	2880	2822	
3	2937	2880	2879	
3	2937	2938	2880	
3	2995	2938	2937	
3	2995	2996	2938	
3	3053	2996	2995	
3	3053	3054	2996	
3	3111	3054	3053	
3	3111	3112	3054	
3	1371	3112	3111	
3	1371	1370	3112	
3	2648	2579	2580	
3	2648	2649	2579	
3	2706	2649	2648	
3	2706	2707	2649	
3	2764	2707	2706	
3	2764	2765	2707	
3	2822	2765	2764	
3	2822	2823	2765	
3	2880	2823	2822	
3	2880	2881	2823	
3	2938	2881	2880	
3	2938	2939	2881	
3	2996	2939	2938	
3	2996	2997	2939	
3	3054	2997	2996	
3	3054	3055	2997	
3	3112	3055	3054	
3	3112	3113	3055	
3	1370	3113	3112	
3	1370	1369	3113	
3	2649	2578	2579	
3	2649	2650	2578	
3	2707	2650	2649	
3	2707	2708	2650	
3	2765	2708	2707	
3	2765	2766	2708	
3	2823	2766	2765	
3	2823	2824	2766	
3	2881	2824	2823	
3	2881	2882	2824	
3	2939	2882	2881	
3	2939	2940	2882	
3	2997	2940	2939	
3	2997	2998	2940	
3	3055	2998	2997	
3	3055	3056	2998	
3	3113	3056	3055	
3	3113	3114	3056	
3	1369	3114	3113	
3	1369	1368	3114	
3	2650	2577	2578	
3	2650	2651	2577	
3	2708	2651	2650	
3	2708	2709	2651	
3	2766	2709	2708	
3	2766	2767	2709	
3	2824	2767	2766	
3	2824	2825	2767	
3	2882	2825	2824	
3	2882	2883	2825	
3	2940	2883	2882	
3	2940	2941	2883	
3	2998	2941	2940	
3	2998	2999	2941	
3	3056	2999	2998	
3	3056	3057	2999	
3	3114	3057	3056	
3	3114	3115	3057	
3	1368	3115	3114	
3	1368	1367	3115	
3	2651	2576	2577	
3	2651	2652	2576	
3	2709	2652	2651	
3	2709	2710	2652	
3	2767	2710	2709	
3	2767	2768	2710	
3	2825	2768	2767	
3	2825	2826	2768	
3	2883	2826	2825	
3	2883	2884	2826	
3	2941	2884	2883	
3	2941	2942	2884	
3	2999	2942	2941	
3	2999	3000	2942	
3	3057	3000	2999	
3	3057	3058	3000	
3	3115	3058	3057	
3	3115	3116	3058	
3	1367	3116	3115	
3	1367	1366	3116	
3	2652	2575	2576	
3	2652	2653	2575	
3	2710	2653	2652	
3	2710	2711	2653	
3	2768	2711	2710	
3	2768	2769	2711	
3	2826	2769	2768	
3	2826	2827	2769	
3	2884	2827	2826	
3	2884	2885	2827	
3	2942	2885	2884	
3	2942	2943	2885	
3	3000	2943	2942	
3	3000	3001	2943	
3	3058	3001	3000	
3	3058	3059	3001	
3	3116	3059	3058	
3	3116	3117	3059	
3	1366	3117	3116	
3	1366	1365	3117	
3	2653	2574	2575	
3	2653	2654	2574	
3	2711	2654	2653	
3	2711	2712	2654	
3	2769	2712	2711	
3	2769	2770	2712	
3	2827	2770	2769	
3	2827	2828	2770	
3	2885	2828	2827	
3	2885	2886	2828	
3	2943	2886	2885	
3	2943	2944	2886	
3	3001	2944	2943	
3	3001	3002	2944	
3	3059	3002	3001	
3	3059	3060	3002	
3	3117	3060	3059	
3	3117	3118	3060	
3	1365	3118	3117	
3	1365	1364	3118	
3	2654	2573	2574	
3	2654	2655	2573	
3	2712	2655	2654	
3	2712	2713	2655	
3	2770	2713	2712	
3	2770	2771	2713	
3	2828	2771	2770	
3	2828	2829	2771	
3	2886	2829	2828	
3	2886	2887	2829	
3	2944	2887	2886	
3	2944	2945	2887	
3	3002	2945	2944	
3	3002	3003	2945	
3	3060	3003	3002	
3	3060	3061	3003	
3	3118	3061	3060	
3	3118	3119	3061	
3	1364	3119	3118	
3	1364	1363	3119	
3	2655	2572	2573	
3	2655	2656	2572	
3	2713	2656	2655	
3	2713	2714	2656	
3	2771	2714	2713	
3	2771	2772	2714	
3	2829	2772	2771	
3	2829	2830	2772	
3	2887	2830	2829	
3	2887	2888	2830	
3	2945	2888	2887	
3	2945	2946	2888	
3	3003	2946	2945	
3	3003	3004	2946	
3	3061	3004	3003	
3	3061	3062	3004	
3	3119	3062	3061	
3	3119	3120	3062	
3	1363	3120	3119	
3	1363	1362	3120	
3	2656	2571	2572	
3	2656	2657	2571	
3	2714	2657	2656	
3	2714	2715	2657	
3	2772	2715	2714	
3	2772	2773	2715	
3	2830	2773	2772	
3	2830	2831	2773	
3	2888	2831	2830	
3	2888	2889	2831	
3	2946	2889	2888	
3	2946	2947	2889	
3	3004	2947	2946	
3	3004	3005	2947	
3	3062	3005	3004	
3	3062	3063	3005	
3	3120	3063	3062	
3	3120	3121	3063	
3	1362	3121	3120	
3	1362	1361	3121	
3	2657	2570	2571	
3	2657	2658	2570	
3	2715	2658	2657	
3	2715	2716	2658	
3	2773	2716	2715	
3	2773	2774	2716	
3	2831	2774	2773	
3	2831	2832	2774	
3	2889	2832	2831	
3	2889	2890	2832	
3	2947	2890	2889	
3	2947	2948	2890	
3	3005	2948	2947	
3	3005	3006	2948	
3	3063	3006	3005	
3	3063	3064	3006	
3	3121	3064	3063	
3	3121	3122	3064	
3	1361	3122	3121	
3	1361	1360	3122	
3	2658	2569	2570	
3	2658	2659	2569	
3	2716	2659	2658	
3	2716	2717	2659	
3	2774	2717	2716	
3	2774	2775	2717	
3	2832	2775	2774	
3	2832	2833	2775	
3	2890	2833	2832	
3	2890	2891	2833	
3	2948	2891	2890	
3	2948	2949	2891	
3	3006	2949	2948	
3	3006	3007	2949	
3	3064	3007	3006	
3	3064	3065	3007	
3	3122	3065	3064	
3	3122	3123	3065	
3	1360	3123	3122	
3	1360	1359	3123	
3	2659	2568	2569	
3	2659	2660	2568	
3	2717	2660	2659	
3	2717	2718	2660	
3	2775	2718	2717	
3	2775	2776	2718	
3	2833	2776	2775	
3	2833	2834	2776	
3	2891	2834	2833	
3	2891	2892	2834	
3	2949	2892	2891	
3	2949	2950	2892	
3	3007	2950	2949	
3	3007	3008	2950	
3	3065	3008	3007	
3	3065	3066	3008	
3	3123	3066	3065	
3	3123	3124	3066	
3	1359	3124	3123	
3	1359	1358	3124	
3	2660	2567	2568	
3	2660	2661	2567	
3	2718	2661	2660	
3	2718	2719	2661	
3	2776	2719	2718	
3	2776	2777	2719	
3	2834	2777	2776	
3	2834	2835	2777	
3	2892	2835	2834	
3	2892	2893	2835	
3	2950	2893	2892	
3	2950	2951	2893	
3	3008	2951	2950	
3	3008	3009	2951	
3	3066	3009	3008	
3	3066	3067	3009	
3	3124	3067	3066	
3	3124	3125	3067	
3	1358	3125	3124	
3	1358	1357	3125	
3	2661	2566	2567	
3	2661	2662	2566	
3	2719	2662	2661	
3	2719	2720	2662	
3	2777	2720	2719	
3	2777	2778	2720	
3	2835	2778	2777	
3	2835	2836	2778	
3	2893	2836	2835	
3	2893	2894	2836	
3	2951	2894	2893	
3	2951	2952	2894	
3	3009	2952	2951	
3	3009	3010	2952	
3	3067	3010	3009	
3	3067	3068	3010	
3	3125	3068	3067	
3	3125	3126	3068	
3	1357	3126	3125	
3	1357	1356	3126	
3	2662	2565	2566	
3	2662	2663	2565	
3	2720	2663	2662	
3	2720	2721	2663	
3	2778	2721	2720	
3	2778	2779	2721	
3	2836	2779	2778	
3	2836	2837	2779	
3	2894	2837	2836	
3	2894	2895	2837	
3	2952	2895	2894	
3	2952	2953	2895	
3	3010	2953	2952	
3	3010	3011	2953	
3	3068	3011	3010	
3	3068	3069	3011	
3	3126	3069	3068	
3	3126	3127	3069	
3	1356	3127	3126	
3	1356	1355	3127	
3	2663	2564	2565	
3	2663	2664	2564	
3	2721	2664	2663	
3	2721	2722	2664	
3	2779	2722	2721	
3	2779	2780	2722	
3	2837	2780	2779	
3	2837	2838	2780	
3	2895	2838	2837	
3	2895	2896	2838	
3	2953	2896	2895	
3	2953	2954	2896	
3	3011	2954	2953	
3	3011	3012	2954	
3	3069	3012	3011	
3	3069	3070	3012	
3	3127	3070	3069	
3	3127	3128	3070	
3	1355	3128	3127	
3	1355	1354	3128	
3	2664	2563	2564	
3	2664	2665	2563	
3	2722	2665	2664	
3	2722	2723	2665	
3	2780	2723	2722	
3	2780	2781	2723	
3	2838	2781	2780	
3	2838	2839	2781	
3	2896	2839	2838	
3	2896	2897	2839	
3	2954	2897	2896	
3	2954	2955	2897	
3	3012	2955	2954	
3	3012	3013	2955	
3	3070	3013	3012	
3	3070	3071	3013	
3	3128	3071	3070	
3	3128	3129	3071	
3	1354	3129	3128	
3	1354	1353	3129	
3	2665	2562	2563	
3	2665	2666	2562	
3	2723	2666	2665	
3	2723	2724	2666	
3	2781	2724	2723	
3	2781	2782	2724	
3	2839	2782	2781	
3	2839	2840	2782	
3	2897	2840	2839	
3	2897	2898	2840	
3	2955	2898	2897	
3	2955	2956	2898	
3	3013	2956	2955	
3	3013	3014	2956	
3	3071	3014	3013	
3	3071	3072	3014	
3	3129	3072	3071	
3	3129	3130	3072	
3	1353	3130	3129	
3	1353	1352	3130	
3	2666	2561	2562	
3	2666	2667	2561	
3	2724	2667	2666	
3	2724	2725	2667	
3	2782	2725	2724	
3	2782	2783	2725	
3	2840	2783	2782	
3	2840	2841	2783	
3	2898	2841	2840	
3	2898	2899	2841	
3	2956	2899	2898	
3	2956	2957	2899	
3	3014	2957	2956	
3	3014	3015	2957	
3	3072	3015	3014	
3	3072	3073	3015	
3	3130	3073	3072	
3	3130	3131	3073	
3	1352	3131	3130	
3	1352	1351	3131	
3	2667	2560	2561	
3	2667	2668	2560	
3	2725	2668	2667	
3	2725	2726	2668	
3	2783	2726	2725	
3	2783	2784	2726	
3	2841	2784	2783	
3	2841	2842	2784	
3	2899	2842	2841	
3	2899	2900	2842	
3	2957	2900	2899	
3	2957	2958	2900	
3	3015	2958	2957	
3	3015	3016	2958	
3	3073	3016	3015	
3	3073	3074	3016	
3	3131	3074	3073	
3	3131	3132	3074	
3	1351	3132	3131	
3	1351	1350	3132	
3	2668	2559	2560	
3	2668	2669	2559	
3	2726	2669	2668	
3	2726	2727	2669	
3	2784	2727	2726	
3	2784	2785	2727	
3	2842	2785	2784	
3	2842	2843	2785	
3	2900	2843	2842	
3	2900	2901	2843	
3	2958	2901	2900	
3	2958	2959	2901	
3	3016	2959	2958	
3	3016	3017	2959	
3	3074	3017	3016	
3	3074	3075	3017	
3	3132	3075	3074	
3	3132	3133	3075	
3	1350	3133	3132	
3	1350	1349	3133	
3	2669	2558	2559	
3	2669	2670	2558	
3	2727	2670	2669	
3	2727	2728	2670	
3	2785	2728	2727	
3	2785	2786	2728	
3	2843	2786	2785	
3	2843	2844	2786	
3	2901	2844	2843	
3	2901	2902	2844	
3	2959	2902	2901	
3	2959	2960	2902	
3	3017	2960	2959	
3	3017	3018	2960	
3	3075	3018	3017	
3	3075	3076	3018	
3	3133	3076	3075	
3	3133	3134	3076	
3	1349	3134	3133	
3	1349	1348	3134	
3	2670	2557	2558	
3	2670	2671	2557	
3	2728	2671	2670	
3	2728	2729	2671	
3	2786	2729	2728	
3	2786	2787	2729	
3	2844	2787	2786	
3	2844	2845	2787	
3	2902	2845	2844	
3	2902	2903	2845	
3	2960	2903	2902	
3	2960	2961	2903	
3	3018	2961	2960	
3	3018	3019	2961	
3	3076	3019	3018	
3	3076	3077	3019	
3	3134	3077	3076	
3	3134	3135	3077	
3	1348	3135	3134	
3	1348	1347	3135	
3	2671	2556	2557	
3	2671	2672	2556	
3	2729	2672	2671	
3	2729	2730	2672	
3	2787	2730	2729	
3	2787	2788	2730	
3	2845	2788	2787	
3	2845	2846	2788	
3	2903	2846	2845	
3	2903	2904	2846	
3	2961	2904	2903	
3	2961	2962	2904	
3	3019	2962	2961	
3	3019	3020	2962	
3	3077	3020	3019	
3	3077	3078	3020	
3	3135	3078	3077	
3	3135	3136	3078	
3	1347	3136	3135	
3	1347	1346	3136	
3	2672	2555	2556	
3	2672	2673	2555	
3	2730	2673	2672	
3	2730	2731	2673	
3	2788	2731	2730	
3	2788	2789	2731	
3	2846	2789	2788	
3	2846	2847	2789	
3	2904	2847	2846	
3	2904	2905	2847	
3	2962	2905	2904	
3	2962	2963	2905	
3	3020	2963	2962	
3	3020	3021	2963	
3	3078	3021	3020	
3	3078	3079	3021	
3	3136	3079	3078	
3	3136	3137	3079	
3	1346	3137	3136	
3	1346	1345	3137	
3	2673	2554	2555	
3	2673	2674	2554	
3	2731	2674	2673	
3	2731	2732	2674	
3	2789	2732	2731	
3	2789	2790	2732	
3	2847	2790	2789	
3	2847	2848	2790	
3	2905	2848	2847	
3	2905	2906	2848	
3	2963	2906	2905	
3	2963	2964	2906	
3	3021	2964	2963	
3	3021	3022	2964	
3	3079	3022	3021	
3	3079	3080	3022	
3	3137	3080	3079	
3	3137	3138	3080	
3	1345	3138	3137	
3	1345	1344	3138	
3	2674	2553	2554	
3	2674	2675	2553	
3	2732	2675	2674	
3	2732	2733	2675	
3	2790	2733	2732	
3	2790	2791	2733	
3	2848	2791	2790	
3	2848	2849	2791	
3	2906	2849	2848	
3	2906	2907	2849	
3	2964	2907	2906	
3	2964	2965	2907	
3	3022	2965	2964	
3	3022	3023	2965	
3	3080	3023	3022	
3	3080	3081	3023	
3	3138	3081	3080	
3	3138	3139	3081	
3	1344	3139	3138	
3	1344	1343	3139	
3	2675	2552	2553	
3	2675	2676	2552	
3	2733	2676	2675	
3	2733	2734	2676	
3	2791	2734	2733	
3	2791	2792	2734	
3	2849	2792	2791	
3	2849	2850	2792	
3	2907	2850	2849	
3	2907	2908	2850	
3	2965	2908	2907	
3	2965	2966	2908	
3	3023	2966	2965	
3	3023	3024	2966	
3	3081	3024	3023	
3	3081	3082	3024	
3	3139	3082	3081	
3	3139	3140	3082	
3	1343	3140	3139	
3	1343	1342	3140	
3	2676	2541	2552	
3	2676	2550	2541	
3	2734	2550	2676	
3	2734	2549	2550	
3	2792	2549	2734	
3	2792	2548	2549	
3	2850	2548	2792	
3	2850	2547	2548	
3	2908	2547	2850	
3	2908	2546	2547	
3	2966	2546	2908	
3	2966	2545	2546	
3	3024	2545	2966	
3	3024	2544	2545	
3	3082	2544	3024	
3	3082	2543	2544	
3	3140	2543	3082	
3	3140	2542	2543	
3	1342	2542	3140	
3	1342	1331	2542	
3	3151	3142	3141	
3	3151	3152	3142	
3	3150	3152	3151	
3	3150	3153	3152	
3	3149	3153	3150	
3	3149	3154	3153	
3	3148	3154	3149	
3	3148	3155	3154	
3	3147	3155	3148	
3	3147	3156	3155	
3	3146	3156	3147	
3	3146	3157	3156	
3	3145	3157	3146	
3	3145	3158	3157	
3	3144	3158	3145	
3	3144	3159	3158	
3	3143	3159	3144	
3	3143	3160	3159	
3	1931	3160	3143	
3	1931	1932	3160	
3	3152	2551	3142	
3	3152	2618	2551	
3	3153	2618	3152	
3	3153	2617	2618	
3	3154	2617	3153	
3	3154	2616	2617	
3	3155	2616	3154	
3	3155	2615	2616	
3	3156	2615	3155	
3	3156	2614	2615	
3	3157	2614	3156	
3	3157	2613	2614	
3	3158	2613	3157	
3	3158	2612	2613	
3	3159	2612	3158	
3	3159	2611	2612	
3	3160	2611	3159	
3	3160	2610	2611	
3	1932	2610	3160	
3	1932	1341	2610	
3	3228	3219	3161	
3	3228	3229	3219	
3	3227	3229	3228	
3	3227	3287	3229	
3	3226	3287	3227	
3	3226	3345	3287	
3	3225	3345	3226	
3	3225	3403	3345	
3	3224	3403	3225	
3	3224	3461	3403	
3	3223	3461	3224	
3	3223	3519	3461	
3	3222	3519	3223	
3	3222	3577	3519	
3	3221	3577	3222	
3	3221	3635	3577	
3	3220	3635	3221	
3	3220	3693	3635	
3	1951	3693	3220	
3	1951	2009	3693	
3	3229	3218	3219	
3	3229	3230	3218	
3	3287	3230	3229	
3	3287	3288	3230	
3	3345	3288	3287	
3	3345	3346	3288	
3	3403	3346	3345	
3	3403	3404	3346	
3	3461	3404	3403	
3	3461	3462	3404	
3	3519	3462	3461	
3	3519	3520	3462	
3	3577	3520	3519	
3	3577	3578	3520	
3	3635	3578	3577	
3	3635	3636	3578	
3	3693	3636	3635	
3	3693	3694	3636	
3	2009	3694	3693	
3	2009	2008	3694	
3	3230	3217	3218	
3	3230	3231	3217	
3	3288	3231	3230	
3	3288	3289	3231	
3	3346	3289	3288	
3	3346	3347	3289	
3	3404	3347	3346	
3	3404	3405	3347	
3	3462	3405	3404	
3	3462	3463	3405	
3	3520	3463	3462	
3	3520	3521	3463	
3	3578	3521	3520	
3	3578	3579	3521	
3	3636	3579	3578	
3	3636	3637	3579	
3	3694	3637	3636	
3	3694	3695	3637	
3	2008	3695	3694	
3	2008	2007	3695	
3	3231	3216	3217	
3	3231	3232	3216	
3	3289	3232	3231	
3	3289	3290	3232	
3	3347	3290	3289	
3	3347	3348	3290	
3	3405	3348	3347	
3	3405	3406	3348	
3	3463	3406	3405	
3	3463	3464	3406	
3	3521	3464	3463	
3	3521	3522	3464	
3	3579	3522	3521	
3	3579	3580	3522	
3	3637	3580	3579	
3	3637	3638	3580	
3	3695	3638	3637	
3	3695	3696	3638	
3	2007	3696	3695	
3	2007	2006	3696	
3	3232	3215	3216	
3	3232	3233	3215	
3	3290	3233	3232	
3	3290	3291	3233	
3	3348	3291	3290	
3	3348	3349	3291	
3	3406	3349	3348	
3	3406	3407	3349	
3	3464	3407	3406	
3	3464	3465	3407	
3	3522	3465	3464	
3	3522	3523	3465	
3	3580	3523	3522	
3	3580	3581	3523	
3	3638	3581	3580	
3	3638	3639	3581	
3	3696	3639	3638	
3	3696	3697	3639	
3	2006	3697	3696	
3	2006	2005	3697	
3	3233	3214	3215	
3	3233	3234	3214	
3	3291	3234	3233	
3	3291	3292	3234	
3	3349	3292	3291	
3	3349	3350	3292	
3	3407	3350	3349	
3	3407	3408	3350	
3	3465	3408	3407	
3	3465	3466	3408	
3	3523	3466	3465	
3	3523	3524	3466	
3	3581	3524	3523	
3	3581	3582	3524	
3	3639	3582	3581	
3	3639	3640	3582	
3	3697	3640	3639	
3	3697	3698	3640	
3	2005	3698	3697	
3	2005	2004	3698	
3	3234	3213	3214	
3	3234	3235	3213	
3	3292	3235	3234	
3	3292	3293	3235	
3	3350	3293	3292	
3	3350	3351	3293	
3	3408	3351	3350	
3	3408	3409	3351	
3	3466	3409	3408	
3	3466	3467	3409	
3	3524	3467	3466	
3	3524	3525	3467	
3	3582	3525	3524	
3	3582	3583	3525	
3	3640	3583	3582	
3	3640	3641	3583	
3	3698	3641	3640	
3	3698	3699	3641	
3	2004	3699	3698	
3	2004	2003	3699	
3	3235	3212	3213	
3	3235	3236	3212	
3	3293	3236	3235	
3	3293	3294	3236	
3	3351	3294	3293	
3	3351	3352	3294	
3	3409	3352	3351	
3	3409	3410	3352	
3	3467	3410	3409	
3	3467	3468	3410	
3	3525	3468	3467	
3	3525	3526	3468	
3	3583	3526	3525	
3	3583	3584	3526	
3	3641	3584	3583	
3	3641	3642	3584	
3	3699	3642	3641	
3	3699	3700	3642	
3	2003	3700	3699	
3	2003	2002	3700	
3	3236	3211	3212	
3	3236	3237	3211	
3	3294	3237	3236	
3	3294	3295	3237	
3	3352	3295	3294	
3	3352	3353	3295	
3	3410	3353	3352	
3	3410	3411	3353	
3	3468	3411	3410	
3	3468	3469	3411	
3	3526	3469	3468	
3	3526	3527	3469	
3	3584	3527	3526	
3	3584	3585	3527	
3	3642	3585	3584	
3	3642	3643	3585	
3	3700	3643	3642	
3	3700	3701	3643	
3	2002	3701	3700	
3	2002	2001	3701	
3	3237	3210	3211	
3	3237	3238	3210	
3	3295	3238	3237	
3	3295	3296	3238	
3	3353	3296	3295	
3	3353	3354	3296	
3	3411	3354	3353	
3	3411	3412	3354	
3	3469	3412	3411	
3	3469	3470	3412	
3	3527	3470	3469	
3	3527	3528	3470	
3	3585	3528	3527	
3	3585	3586	3528	
3	3643	3586	3585	
3	3643	3644	3586	
3	3701	3644	3643	
3	3701	3702	3644	
3	2001	3702	3701	
3	2001	2000	3702	
3	3238	3209	3210	
3	3238	3239	3209	
3	3296	3239	3238	
3	3296	3297	3239	
3	3354	3297	3296	
3	3354	3355	3297	
3	3412	3355	3354	
3	3412	3413	3355	
3	3470	3413	3412	
3	3470	3471	3413	
3	3528	3471	3470	
3	3528	3529	3471	
3	3586	3529	3528	
3	3586	3587	3529	
3	3644	3587	3586	
3	3644	3645	3587	
3	3702	3645	3644	
3	3702	3703	3645	
3	2000	3703	3702	
3	2000	1999	3703	
3	3239	3208	3209	
3	3239	3240	3208	
3	3297	3240	3239	
3	3297	3298	3240	
3	3355	3298	3297	
3	3355	3356	3298	
3	3413	3356	3355	
3	3413	3414	3356	
3	3471	3414	3413	
3	3471	3472	3414	
3	3529	3472	3471	
3	3529	3530	3472	
3	3587	3530	3529	
3	3587	3588	3530	
3	3645	3588	3587	
3	3645	3646	3588	
3	3703	3646	3645	
3	3703	3704	3646	
3	1999	3704	3703	
3	1999	1998	3704	
3	3240	3207	3208	
3	3240	3241	3207	
3	3298	3241	3240	
3	3298	3299	3241	
3	3356	3299	3298	
3	3356	3357	3299	
3	3414	3357	3356	
3	3414	3415	3357	
3	3472	3415	3414	
3	3472	3473	3415	
3	3530	3473	3472	
3	3530	3531	3473	
3	3588	3531	3530	
3	3588	3589	3531	
3	3646	3589	3588	
3	3646	3647	3589	
3	3704	3647	3646	
3	3704	3705	3647	
3	1998	3705	3704	
3	1998	1997	3705	
3	3241	3206	3207	
3	3241	3242	3206	
3	3299	3242	3241	
3	3299	3300	3242	
3	3357	3300	3299	
3	3357	3358	3300	
3	3415	3358	3357	
3	3415	3416	3358	
3	3473	3416	3415	
3	3473	3474	3416	
3	3531	3474	3473	
3	3531	3532	3474	
3	3589	3532	3531	
3	3589	3590	3532	
3	3647	3590	3589	
3	3647	3648	3590	
3	3705	3648	3647	
3	3705	3706	3648	
3	1997	3706	3705	
3	1997	1996	3706	
3	3242	3205	3206	
3	3242	3243	3205	
3	3300	3243	3242	
3	3300	3301	3243	
3	3358	3301	3300	
3	3358	3359	3301	
3	3416	3359	3358	
3	3416	3417	3359	
3	3474	3417	3416	
3	3474	3475	3417	
3	3532	3475	3474	
3	3532	3533	3475	
3	3590	3533	3532	
3	3590	3591	3533	
3	3648	3591	3590	
3	3648	3649	3591	
3	3706	3649	3648	
3	3706	3707	3649	
3	1996	3707	3706	
3	1996	1995	3707	
3	3243	3204	3205	
3	3243	3244	3204	
3	3301	3244	3243	
3	3301	3302	3244	
3	3359	3302	3301	
3	3359	3360	3302	
3	3417	3360	3359	
3	3417	3418	3360	
3	3475	3418	3417	
3	3475	3476	3418	
3	3533	3476	3475	
3	3533	3534	3476	
3	3591	3534	3533	
3	3591	3592	3534	
3	3649	3592	3591	
3	3649	3650	3592	
3	3707	3650	3649	
3	3707	3708	3650	
3	1995	3708	3707	
3	1995	1994	3708	
3	3244	3203	3204	
3	3244	3245	3203	
3	3302	3245	3244	
3	3302	3303	3245	
3	3360	3303	3302	
3	3360	3361	3303	
3	3418	3361	3360	
3	3418	3419	3361	
3	3476	3419	3418	
3	3476	3477	3419	
3	3534	3477	3476	
3	3534	3535	3477	
3	3592	3535	3534	
3	3592	3593	3535	
3	3650	3593	3592	
3	3650	3651	3593	
3	3708	3651	3650	
3	3708	3709	3651	
3	1994	3709	3708	
3	1994	1993	3709	
3	3245	3202	3203	
3	3245	3246	3202	
3	3303	3246	3245	
3	3303	3304	3246	
3	3361	3304	3303	
3	3361	3362	3304	
3	3419	3362	3361	
3	3419	3420	3362	
3	3477	3420	3419	
3	3477	3478	3420	
3	3535	3478	3477	
3	3535	3536	3478	
3	3593	3536	3535	
3	3593	3594	3536	
3	3651	3594	3593	
3	3651	3652	3594	
3	3709	3652	3651	
3	3709	3710	3652	
3	1993	3710	3709	
3	1993	1992	3710	
3	3246	3201	3202	
3	3246	3247	3201	
3	3304	3247	3246	
3	3304	3305	3247	
3	3362	3305	3304	
3	3362	3363	3305	
3	3420	3363	3362	
3	3420	3421	3363	
3	3478	3421	3420	
3	3478	3479	3421	
3	3536	3479	3478	
3	3536	3537	3479	
3	3594	3537	3536	
3	3594	3595	3537	
3	3652	3595	3594	
3	3652	3653	3595	
3	3710	3653	3652	
3	3710	3711	3653	
3	1992	3711	3710	
3	1992	1991	3711	
3	3247	3200	3201	
3	3247	3248	3200	
3	3305	3248	3247	
3	3305	3306	3248	
3	3363	3306	3305	
3	3363	3364	3306	
3	3421	3364	3363	
3	3421	3422	3364	
3	3479	3422	3421	
3	3479	3480	3422	
3	3537	3480	3479	
3	3537	3538	3480	
3	3595	3538	3537	
3	3595	3596	3538	
3	3653	3596	3595	
3	3653	3654	3596	
3	3711	3654	3653	
3	3711	3712	3654	
3	1991	3712	3711	
3	1991	1990	3712	
3	3248	3199	3200	
3	3248	3249	3199	
3	3306	3249	3248	
3	3306	3307	3249	
3	3364	3307	3306	
3	3364	3365	3307	
3	3422	3365	3364	
3	3422	3423	3365	
3	3480	3423	3422	
3	3480	3481	3423	
3	3538	3481	3480	
3	3538	3539	3481	
3	3596	3539	3538	
3	3596	3597	3539	
3	3654	3597	3596	
3	3654	3655	3597	
3	3712	3655	3654	
3	3712	3713	3655	
3	1990	3713	3712	
3	1990	1989	3713	
3	3249	3198	3199	
3	3249	3250	3198	
3	3307	3250	3249	
3	3307	3308	3250	
3	3365	3308	3307	
3	3365	3366	3308	
3	3423	3366	3365	
3	3423	3424	3366	
3	3481	3424	3423	
3	3481	3482	3424	
3	3539	3482	3481	
3	3539	3540	3482	
3	3597	3540	3539	
3	3597	3598	3540	
3	3655	3598	3597	
3	3655	3656	3598	
3	3713	3656	3655	
3	3713	3714	3656	
3	1989	3714	3713	
3	1989	1988	3714	
3	3250	3197	3198	
3	3250	3251	3197	
3	3308	3251	3250	
3	3308	3309	3251	
3	3366	3309	3308	
3	3366	3367	3309	
3	3424	3367	3366	
3	3424	3425	3367	
3	3482	3425	3424	
3	3482	3483	3425	
3	3540	3483	3482	
3	3540	3541	3483	
3	3598	3541	3540	
3	3598	3599	3541	
3	3656	3599	3598	
3	3656	3657	3599	
3	3714	3657	3656	
3	3714	3715	3657	
3	1988	3715	3714	
3	1988	1987	3715	
3	3251	3196	3197	
3	3251	3252	3196	
3	3309	3252	3251	
3	3309	3310	3252	
3	3367	3310	3309	
3	3367	3368	3310	
3	3425	3368	3367	
3	3425	3426	3368	
3	3483	3426	3425	
3	3483	3484	3426	
3	3541	3484	3483	
3	3541	3542	3484	
3	3599	3542	3541	
3	3599	3600	3542	
3	3657	3600	3599	
3	3657	3658	3600	
3	3715	3658	3657	
3	3715	3716	3658	
3	1987	3716	3715	
3	1987	1986	3716	
3	3252	3195	3196	
3	3252	3253	3195	
3	3310	3253	3252	
3	3310	3311	3253	
3	3368	3311	3310	
3	3368	3369	3311	
3	3426	3369	3368	
3	3426	3427	3369	
3	3484	3427	3426	
3	3484	3485	3427	
3	3542	3485	3484	
3	3542	3543	3485	
3	3600	3543	3542	
3	3600	3601	3543	
3	3658	3601	3600	
3	3658	3659	3601	
3	3716	3659	3658	
3	3716	3717	3659	
3	1986	3717	3716	
3	1986	1985	3717	
3	3253	3194	3195	
3	3253	3254	3194	
3	3311	3254	3253	
3	3311	3312	3254	
3	3369	3312	3311	
3	3369	3370	3312	
3	3427	3370	3369	
3	3427	3428	3370	
3	3485	3428	3427	
3	3485	3486	3428	
3	3543	3486	3485	
3	3543	3544	3486	
3	3601	3544	3543	
3	3601	3602	3544	
3	3659	3602	3601	
3	3659	3660	3602	
3	3717	3660	3659	
3	3717	3718	3660	
3	1985	3718	3717	
3	1985	1984	3718	
3	3254	3193	3194	
3	3254	3255	3193	
3	3312	3255	3254	
3	3312	3313	3255	
3	3370	3313	3312	
3	3370	3371	3313	
3	3428	3371	3370	
3	3428	3429	3371	
3	3486	3429	3428	
3	3486	3487	3429	
3	3544	3487	3486	
3	3544	3545	3487	
3	3602	3545	3544	
3	3602	3603	3545	
3	3660	3603	3602	
3	3660	3661	3603	
3	3718	3661	3660	
3	3718	3719	3661	
3	1984	3719	3718	
3	1984	1983	3719	
3	3255	3192	3193	
3	3255	3256	3192	
3	3313	3256	3255	
3	3313	3314	3256	
3	3371	3314	3313	
3	3371	3372	3314	
3	3429	3372	3371	
3	3429	3430	3372	
3	3487	3430	3429	
3	3487	3488	3430	
3	3545	3488	3487	
3	3545	3546	3488	
3	3603	3546	3545	
3	3603	3604	3546	
3	3661	3604	3603	
3	3661	3662	3604	
3	3719	3662	3661	
3	3719	3720	3662	
3	1983	3720	3719	
3	1983	1982	3720	
3	3256	3191	3192	
3	3256	3257	3191	
3	3314	3257	3256	
3	3314	3315	3257	
3	3372	3315	3314	
3	3372	3373	3315	
3	3430	3373	3372	
3	3430	3431	3373	
3	3488	3431	3430	
3	3488	3489	3431	
3	3546	3489	3488	
3	3546	3547	3489	
3	3604	3547	3546	
3	3604	3605	3547	
3	3662	3605	3604	
3	3662	3663	3605	
3	3720	3663	3662	
3	3720	3721	3663	
3	1982	3721	3720	
3	1982	1981	3721	
3	3257	3190	3191	
3	3257	3258	3190	
3	3315	3258	3257	
3	3315	3316	3258	
3	3373	3316	3315	
3	3373	3374	3316	
3	3431	3374	3373	
3	3431	3432	3374	
3	3489	3432	3431	
3	3489	3490	3432	
3	3547	3490	3489	
3	3547	3548	3490	
3	3605	3548	3547	
3	3605	3606	3548	
3	3663	3606	3605	
3	3663	3664	3606	
3	3721	3664	3663	
3	3721	3722	3664	
3	1981	3722	3721	
3	1981	1980	3722	
3	3258	3189	3190	
3	3258	3259	3189	
3	3316	3259	3258	
3	3316	3317	3259	
3	3374	3317	3316	
3	3374	3375	3317	
3	3432	3375	3374	
3	3432	3433	3375	
3	3490	3433	3432	
3	3490	3491	3433	
3	3548	3491	3490	
3	3548	3549	3491	
3	3606	3549	3548	
3	3606	3607	3549	
3	3664	3607	3606	
3	3664	3665	3607	
3	3722	3665	3664	
3	3722	3723	3665	
3	1980	3723	3722	
3	1980	1979	3723	
3	3259	3188	3189	
3	3259	3260	3188	
3	3317	3260	3259	
3	3317	3318	3260	
3	3375	3318	3317	
3	3375	3376	3318	
3	3433	3376	3375	
3	3433	3434	3376	
3	3491	3434	3433	
3	3491	3492	3434	
3	3549	3492	3491	
3	3549	3550	3492	
3	3607	3550	3549	
3	3607	3608	3550	
3	3665	3608	3607	
3	3665	3666	3608	
3	3723	3666	3665	
3	3723	3724	3666	
3	1979	3724	3723	
3	1979	1978	3724	
3	3260	3187	3188	
3	3260	3261	3187	
3	3318	3261	3260	
3	3318	3319	3261	
3	3376	3319	3318	
3	3376	3377	3319	
3	3434	3377	3376	
3	3434	3435	3377	
3	3492	3435	3434	
3	3492	3493	3435	
3	3550	3493	3492	
3	3550	3551	3493	
3	3608	3551	3550	
3	3608	3609	3551	
3	3666	3609	3608	
3	3666	3667	3609	
3	3724	3667	3666	
3	3724	3725	3667	
3	1978	3725	3724	
3	1978	1977	3725	
3	3261	3186	3187	
3	3261	3262	3186	
3	3319	3262	3261	
3	3319	3320	3262	
3	3377	3320	3319	
3	3377	3378	3320	
3	3435	3378	3377	
3	3435	3436	3378	
3	3493	3436	3435	
3	3493	3494	3436	
3	3551	3494	3493	
3	3551	3552	3494	
3	3609	3552	3551	
3	3609	3610	3552	
3	3667	3610	3609	
3	3667	3668	3610	
3	3725	3668	3667	
3	3725	3726	3668	
3	1977	3726	3725	
3	1977	1976	3726	
3	3262	3185	3186	
3	3262	3263	3185	
3	3320	3263	3262	
3	3320	3321	3263	
3	3378	3321	3320	
3	3378	3379	3321	
3	3436	3379	3378	
3	3436	3437	3379	
3	3494	3437	3436	
3	3494	3495	3437	
3	3552	3495	3494	
3	3552	3553	3495	
3	3610	3553	3552	
3	3610	3611	3553	
3	3668	3611	3610	
3	3668	3669	3611	
3	3726	3669	3668	
3	3726	3727	3669	
3	1976	3727	3726	
3	1976	1975	3727	
3	3263	3184	3185	
3	3263	3264	3184	
3	3321	3264	3263	
3	3321	3322	3264	
3	3379	3322	3321	
3	3379	3380	3322	
3	3437	3380	3379	
3	3437	3438	3380	
3	3495	3438	3437	
3	3495	3496	3438	
3	3553	3496	3495	
3	3553	3554	3496	
3	3611	3554	3553	
3	3611	3612	3554	
3	3669	3612	3611	
3	3669	3670	3612	
3	3727	3670	3669	
3	3727	3728	3670	
3	1975	3728	3727	
3	1975	1974	3728	
3	3264	3183	3184	
3	3264	3265	3183	
3	3322	3265	3264	
3	3322	3323	3265	
3	3380	3323	3322	
3	3380	3381	3323	
3	3438	3381	3380	
3	3438	3439	3381	
3	3496	3439	3438	
3	3496	3497	3439	
3	3554	3497	3496	
3	3554	3555	3497	
3	3612	3555	3554	
3	3612	3613	3555	
3	3670	3613	3612	
3	3670	3671	3613	
3	3728	3671	3670	
3	3728	3729	3671	
3	1974	3729	3728	
3	1974	1973	3729	
3	3265	3182	3183	
3	3265	3266	3182	
3	3323	3266	3265	
3	3323	3324	3266	
3	3381	3324	3323	
3	3381	3382	3324	
3	3439	3382	3381	
3	3439	3440	3382	
3	3497	3440	3439	
3	3497	3498	3440	
3	3555	3498	3497	
3	3555	3556	3498	
3	3613	3556	3555	
3	3613	3614	3556	
3	3671	3614	3613	
3	3671	3672	3614	
3	3729	3672	3671	
3	3729	3730	3672	
3	1973	3730	3729	
3	1973	1972	3730	
3	3266	3181	3182	
3	3266	3267	3181	
3	3324	3267	3266	
3	3324	3325	3267	
3	3382	3325	3324	
3	3382	3383	3325	
3	3440	3383	3382	
3	3440	3441	3383	
3	3498	3441	3440	
3	3498	3499	3441	
3	3556	3499	3498	
3	3556	3557	3499	
3	3614	3557	3556	
3	3614	3615	3557	
3	3672	3615	3614	
3	3672	3673	3615	
3	3730	3673	3672	
3	3730	3731	3673	
3	1972	3731	3730	
3	1972	1971	3731	
3	3267	3180	3181	
3	3267	3268	3180	
3	3325	3268	3267	
3	3325	3326	3268	
3	3383	3326	3325	
3	3383	3384	3326	
3	3441	3384	3383	
3	3441	3442	3384	
3	3499	3442	3441	
3	3499	3500	3442	
3	3557	3500	3499	
3	3557	3558	3500	
3	3615	3558	3557	
3	3615	3616	3558	
3	3673	3616	3615	
3	3673	3674	3616	
3	3731	3674	3673	
3	3731	3732	3674	
3	1971	3732	3731	
3	1971	1970	3732	
3	3268	3179	3180	
3	3268	3269	3179	
3	3326	3269	3268	
3	3326	3327	3269	
3	3384	3327	3326	
3	3384	3385	3327	
3	3442	3385	3384	
3	3442	3443	3385	
3	3500	3443	3442	
3	3500	3501	3443	
3	3558	3501	3500	
3	3558	3559	3501	
3	3616	3559	3558	
3	3616	3617	3559	
3	3674	3617	3616	
3	3674	3675	3617	
3	3732	3675	3674	
3	3732	3733	3675	
3	1970	3733	3732	
3	1970	1969	3733	
3	3269	3178	3179	
3	3269	3270	3178	
3	3327	3270	3269	
3	3327	3328	3270	
3	3385	3328	3327	
3	3385	3386	3328	
3	3443	3386	3385	
3	3443	3444	3386	
3	3501	3444	3443	
3	3501	3502	3444	
3	3559	3502	3501	
3	3559	3560	3502	
3	3617	3560	3559	
3	3617	3618	3560	
3	3675	3618	3617	
3	3675	3676	3618	
3	3733	3676	3675	
3	3733	3734	3676	
3	1969	3734	3733	
3	1969	1968	3734	
3	3270	3177	3178	
3	3270	3271	3177	
3	3328	3271	3270	
3	3328	3329	3271	
3	3386	3329	3328	
3	3386	3387	3329	
3	3444	3387	3386	
3	3444	3445	3387	
3	3502	3445	3444	
3	3502	3503	3445	
3	3560	3503	3502	
3	3560	3561	3503	
3	3618	3561	3560	
3	3618	3619	3561	
3	3676	3619	3618	
3	3676	3677	3619	
3	3734	3677	3676	
3	3734	3735	3677	
3	1968	3735	3734	
3	1968	1967	3735	
3	3271	3176	3177	
3	3271	3272	3176	
3	3329	3272	3271	
3	3329	3330	3272	
3	3387	3330	3329	
3	3387	3388	3330	
3	3445	3388	3387	
3	3445	3446	3388	
3	3503	3446	3445	
3	3503	3504	3446	
3	3561	3504	3503	
3	3561	3562	3504	
3	3619	3562	3561	
3	3619	3620	3562	
3	3677	3620	3619	
3	3677	3678	3620	
3	3735	3678	3677	
3	3735	3736	3678	
3	1967	3736	3735	
3	1967	1966	3736	
3	3272	3175	3176	
3	3272	3273	3175	
3	3330	3273	3272	
3	3330	3331	3273	
3	3388	3331	3330	
3	3388	3389	3331	
3	3446	3389	3388	
3	3446	3447	3389	
3	3504	3447	3446	
3	3504	3505	3447	
3	3562	3505	3504	
3	3562	3563	3505	
3	3620	3563	3562	
3	3620	3621	3563	
3	3678	3621	3620	
3	3678	3679	3621	
3	3736	3679	3678	
3	3736	3737	3679	
3	1966	3737	3736	
3	1966	1965	3737	
3	3273	3174	3175	
3	3273	3274	3174	
3	3331	3274	3273	
3	3331	3332	3274	
3	3389	3332	3331	
3	3389	3390	3332	
3	3447	3390	3389	
3	3447	3448	3390	
3	3505	3448	3447	
3	3505	3506	3448	
3	3563	3506	3505	
3	3563	3564	3506	
3	3621	3564	3563	
3	3621	3622	3564	
3	3679	3622	3621	
3	3679	3680	3622	
3	3737	3680	3679	
3	3737	3738	3680	
3	1965	3738	3737	
3	1965	1964	3738	
3	3274	3173	3174	
3	3274	3275	3173	
3	3332	3275	3274	
3	3332	3333	3275	
3	3390	3333	3332	
3	3390	3391	3333	
3	3448	3391	3390	
3	3448	3449	3391	
3	3506	3449	3448	
3	3506	3507	3449	
3	3564	3507	3506	
3	3564	3565	3507	
3	3622	3565	3564	
3	3622	3623	3565	
3	3680	3623	3622	
3	3680	3681	3623	
3	3738	3681	3680	
3	3738	3739	3681	
3	1964	3739	3738	
3	1964	1963	3739	
3	3275	3172	3173	
3	3275	3276	3172	
3	3333	3276	3275	
3	3333	3334	3276	
3	3391	3334	3333	
3	3391	3392	3334	
3	3449	3392	3391	
3	3449	3450	3392	
3	3507	3450	3449	
3	3507	3508	3450	
3	3565	3508	3507	
3	3565	3566	3508	
3	3623	3566	3565	
3	3623	3624	3566	
3	3681	3624	3623	
3	3681	3682	3624	
3	3739	3682	3681	
3	3739	3740	3682	
3	1963	3740	3739	
3	1963	1962	3740	
3	3276	3171	3172	
3	3276	3277	3171	
3	3334	3277	3276	
3	3334	3335	3277	
3	3392	3335	3334	
3	3392	3393	3335	
3	3450	3393	3392	
3	3450	3451	3393	
3	3508	3451	3450	
3	3508	3509	3451	
3	3566	3509	3508	
3	3566	3567	3509	
3	3624	3567	3566	
3	3624	3625	3567	
3	3682	3625	3624	
3	3682	3683	3625	
3	3740	3683	3682	
3	3740	3741	3683	
3	1962	3741	3740	
3	1962	1961	3741	
3	3277	3170	3171	
3	3277	3278	3170	
3	3335	3278	3277	
3	3335	3336	3278	
3	3393	3336	3335	
3	3393	3394	3336	
3	3451	3394	3393	
3	3451	3452	3394	
3	3509	3452	3451	
3	3509	3510	3452	
3	3567	3510	3509	
3	3567	3568	3510	
3	3625	3568	3567	
3	3625	3626	3568	
3	3683	3626	3625	
3	3683	3684	3626	
3	3741	3684	3683	
3	3741	3742	3684	
3	1961	3742	3741	
3	1961	1960	3742	
3	3278	3169	3170	
3	3278	3279	3169	
3	3336	3279	3278	
3	3336	3337	3279	
3	3394	3337	3336	
3	3394	3395	3337	
3	3452	3395	3394	
3	3452	3453	3395	
3	3510	3453	3452	
3	3510	3511	3453	
3	3568	3511	3510	
3	3568	3569	3511	
3	3626	3569	3568	
3	3626	3627	3569	
3	3684	3627	3626	
3	3684	3685	3627	
3	3742	3685	3684	
3	3742	3743	3685	
3	1960	3743	3742	
3	1960	1959	3743	
3	3279	3168	3169	
3	3279	3280	3168	
3	3337	3280	3279	
3	3337	3338	3280	
3	3395	3338	3337	
3	3395	3396	3338	
3	3453	3396	3395	
3	3453	3454	3396	
3	3511	3454	3453	
3	3511	3512	3454	
3	3569	3512	3511	
3	3569	3570	3512	
3	3627	3570	3569	
3	3627	3628	3570	
3	3685	3628	3627	
3	3685	3686	3628	
3	3743	3686	3685	
3	3743	3744	3686	
3	1959	3744	3743	
3	1959	1958	3744	
3	3280	3167	3168	
3	3280	3281	3167	
3	3338	3281	3280	
3	3338	3339	3281	
3	3396	3339	3338	
3	3396	3397	3339	
3	3454	3397	3396	
3	3454	3455	3397	
3	3512	3455	3454	
3	3512	3513	3455	
3	3570	3513	3512	
3	3570	3571	3513	
3	3628	3571	3570	
3	3628	3629	3571	
3	3686	3629	3628	
3	3686	3687	3629	
3	3744	3687	3686	
3	3744	3745	3687	
3	1958	3745	3744	
3	1958	1957	3745	
3	3281	3166	3167	
3	3281	3282	3166	
3	3339	3282	3281	
3	3339	3340	3282	
3	3397	3340	3339	
3	3397	3398	3340	
3	3455	3398	3397	
3	3455	3456	3398	
3	3513	3456	3455	
3	3513	3514	3456	
3	3571	3514	3513	
3	3571	3572	3514	
3	3629	3572	3571	
3	3629	3630	3572	
3	3687	3630	3629	
3	3687	3688	3630	
3	3745	3688	3687	
3	3745	3746	3688	
3	1957	3746	3745	
3	1957	1956	3746	
3	3282	3165	3166	
3	3282	3283	3165	
3	3340	3283	3282	
3	3340	3341	3283	
3	3398	3341	3340	
3	3398	3399	3341	
3	3456	3399	3398	
3	3456	3457	3399	
3	3514	3457	3456	
3	3514	3515	3457	
3	3572	3515	3514	
3	3572	3573	3515	
3	3630	3573	3572	
3	3630	3631	3573	
3	3688	3631	3630	
3	3688	3689	3631	
3	3746	3689	3688	
3	3746	3747	3689	
3	1956	3747	3746	
3	1956	1955	3747	
3	3283	3164	3165	
3	3283	3284	3164	
3	3341	3284	3283	
3	3341	3342	3284	
3	3399	3342	3341	
3	3399	3400	3342	
3	3457	3400	3399	
3	3457	3458	3400	
3	3515	3458	3457	
3	3515	3516	3458	
3	3573	3516	3515	
3	3573	3574	3516	
3	3631	3574	3573	
3	3631	3632	3574	
3	3689	3632	3631	
3	3689	3690	3632	
3	3747	3690	3689	
3	3747	3748	3690	
3	1955	3748	3747	
3	1955	1954	3748	
3	3284	3163	3164	
3	3284	3285	3163	
3	3342	3285	3284	
3	3342	3343	3285	
3	3400	3343	3342	
3	3400	3401	3343	
3	3458	3401	3400	
3	3458	3459	3401	
3	3516	3459	3458	
3	3516	3517	3459	
3	3574	3517	3516	
3	3574	3575	3517	
3	3632	3575	3574	
3	3632	3633	3575	
3	3690	3633	3632	
3	3690	3691	3633	
3	3748	3691	3690	
3	3748	3749	3691	
3	1954	3749	3748	
3	1954	1953	3749	
3	3285	3162	3163	
3	3285	3286	3162	
3	3343	3286	3285	
3	3343	3344	3286	
3	3401	3344	3343	
3	3401	3402	3344	
3	3459	3402	3401	
3	3459	3460	3402	
3	3517	3460	3459	
3	3517	3518	3460	
3	3575	3518	3517	
3	3575	3576	3518	
3	3633	3576	3575	
3	3633	3634	3576	
3	3691	3634	3633	
3	3691	3692	3634	
3	3749	3692	3691	
3	3749	3750	3692	
3	1953	3750	3749	
3	1953	1952	3750	
3	3286	3141	3162	
3	3286	3151	3141	
3	3344	3151	3286	
3	3344	3150	3151	
3	3402	3150	3344	
3	3402	3149	3150	
3	3460	3149	3402	
3	3460	3148	3149	
3	3518	3148	3460	
3	3518	3147	3148	
3	3576	3147	3518	
3	3576	3146	3147	
3	3634	3146	3576	
3	3634	3145	3146	
3	3692	3145	3634	
3	3692	3144	3145	
3	3750	3144	3692	
3	3750	3143	3144	
3	1952	3143	3750	
3	1952	1931	3143	
3	3768	137	70	
3	3768	3769	137	
3	3767	3769	3768	
3	3767	3827	3769	
3	3766	3827	3767	
3	3766	3885	3827	
3	3765	3885	3766	
3	3765	3943	3885	
3	3764	3943	3765	
3	3764	4001	3943	
3	3763	4001	3764	
3	3763	4059	4001	
3	3762	4059	3763	
3	3762	4117	4059	
3	3761	4117	3762	
3	3761	4175	4117	
3	3760	4175	3761	
3	3760	4233	4175	
3	2551	4233	3760	
3	2551	2609	4233	
3	3769	136	137	
3	3769	3770	136	
3	3827	3770	3769	
3	3827	3828	3770	
3	3885	3828	3827	
3	3885	3886	3828	
3	3943	3886	3885	
3	3943	3944	3886	
3	4001	3944	3943	
3	4001	4002	3944	
3	4059	4002	4001	
3	4059	4060	4002	
3	4117	4060	4059	
3	4117	4118	4060	
3	4175	4118	4117	
3	4175	4176	4118	
3	4233	4176	4175	
3	4233	4234	4176	
3	2609	4234	4233	
3	2609	2608	4234	
3	3770	135	136	
3	3770	3771	135	
3	3828	3771	3770	
3	3828	3829	3771	
3	3886	3829	3828	
3	3886	3887	3829	
3	3944	3887	3886	
3	3944	3945	3887	
3	4002	3945	3944	
3	4002	4003	3945	
3	4060	4003	4002	
3	4060	4061	4003	
3	4118	4061	4060	
3	4118	4119	4061	
3	4176	4119	4118	
3	4176	4177	4119	
3	4234	4177	4176	
3	4234	4235	4177	
3	2608	4235	4234	
3	2608	2607	4235	
3	3771	134	135	
3	3771	3772	134	
3	3829	3772	3771	
3	3829	3830	3772	
3	3887	3830	3829	
3	3887	3888	3830	
3	3945	3888	3887	
3	3945	3946	3888	
3	4003	3946	3945	
3	4003	4004	3946	
3	4061	4004	4003	
3	4061	4062	4004	
3	4119	4062	4061	
3	4119	4120	4062	
3	4177	4120	4119	
3	4177	4178	4120	
3	4235	4178	4177	
3	4235	4236	4178	
3	2607	4236	4235	
3	2607	2606	4236	
3	3772	133	134	
3	3772	3773	133	
3	3830	3773	3772	
3	3830	3831	3773	
3	3888	3831	3830	
3	3888	3889	3831	
3	3946	3889	3888	
3	3946	3947	3889	
3	4004	3947	3946	
3	4004	4005	3947	
3	4062	4005	4004	
3	4062	4063	4005	
3	4120	4063	4062	
3	4120	4121	4063	
3	4178	4121	4120	
3	4178	4179	4121	
3	4236	4179	4178	
3	4236	4237	4179	
3	2606	4237	4236	
3	2606	2605	4237	
3	3773	132	133	
3	3773	3774	132	
3	3831	3774	3773	
3	3831	3832	3774	
3	3889	3832	3831	
3	3889	3890	3832	
3	3947	3890	3889	
3	3947	3948	3890	
3	4005	3948	3947	
3	4005	4006	3948	
3	4063	4006	4005	
3	4063	4064	4006	
3	4121	4064	4063	
3	4121	4122	4064	
3	4179	4122	4121	
3	4179	4180	4122	
3	4237	4180	4179	
3	4237	4238	4180	
3	2605	4238	4237	
3	2605	2604	4238	
3	3774	131	132	
3	3774	3775	131	
3	3832	3775	3774	
3	3832	3833	3775	
3	3890	3833	3832	
3	3890	3891	3833	
3	3948	3891	3890	
3	3948	3949	3891	
3	4006	3949	3948	
3	4006	4007	3949	
3	4064	4007	4006	
3	4064	4065	4007	
3	4122	4065	4064	
3	4122	4123	4065	
3	4180	4123	4122	
3	4180	4181	4123	
3	4238	4181	4180	
3	4238	4239	4181	
3	2604	4239	4238	
3	2604	2603	4239	
3	3775	130	131	
3	3775	3776	130	
3	3833	3776	3775	
3	3833	3834	3776	
3	3891	3834	3833	
3	3891	3892	3834	
3	3949	3892	3891	
3	3949	3950	3892	
3	4007	3950	3949	
3	4007	4008	3950	
3	4065	4008	4007	
3	4065	4066	4008	
3	4123	4066	4065	
3	4123	4124	4066	
3	4181	4124	4123	
3	4181	4182	4124	
3	4239	4182	4181	
3	4239	4240	4182	
3	2603	4240	4239	
3	2603	2602	4240	
3	3776	129	130	
3	3776	3777	129	
3	3834	3777	3776	
3	3834	3835	3777	
3	3892	3835	3834	
3	3892	3893	3835	
3	3950	3893	3892	
3	3950	3951	3893	
3	4008	3951	3950	
3	4008	4009	3951	
3	4066	4009	4008	
3	4066	4067	4009	
3	4124	4067	4066	
3	4124	4125	4067	
3	4182	4125	4124	
3	4182	4183	4125	
3	4240	4183	4182	
3	4240	4241	4183	
3	2602	4241	4240	
3	2602	2601	4241	
3	3777	128	129	
3	3777	3778	128	
3	3835	3778	3777	
3	3835	3836	3778	
3	3893	3836	3835	
3	3893	3894	3836	
3	3951	3894	3893	
3	3951	3952	3894	
3	4009	3952	3951	
3	4009	4010	3952	
3	4067	4010	4009	
3	4067	4068	4010	
3	4125	4068	4067	
3	4125	4126	4068	
3	4183	4126	4125	
3	4183	4184	4126	
3	4241	4184	4183	
3	4241	4242	4184	
3	2601	4242	4241	
3	2601	2600	4242	
3	3778	127	128	
3	3778	3779	127	
3	3836	3779	3778	
3	3836	3837	3779	
3	3894	3837	3836	
3	3894	3895	3837	
3	3952	3895	3894	
3	3952	3953	3895	
3	4010	3953	3952	
3	4010	4011	3953	
3	4068	4011	4010	
3	4068	4069	4011	
3	4126	4069	4068	
3	4126	4127	4069	
3	4184	4127	4126	
3	4184	4185	4127	
3	4242	4185	4184	
3	4242	4243	4185	
3	2600	4243	4242	
3	2600	2599	4243	
3	3779	126	127	
3	3779	3780	126	
3	3837	3780	3779	
3	3837	3838	3780	
3	3895	3838	3837	
3	3895	3896	3838	
3	3953	3896	3895	
3	3953	3954	3896	
3	4011	3954	3953	
3	4011	4012	3954	
3	4069	4012	4011	
3	4069	4070	4012	
3	4127	4070	4069	
3	4127	4128	4070	
3	4185	4128	4127	
3	4185	4186	4128	
3	4243	4186	4185	
3	4243	4244	4186	
3	2599	4244	4243	
3	2599	2598	4244	
3	3780	125	126	
3	3780	3781	125	
3	3838	3781	3780	
3	3838	3839	3781	
3	3896	3839	3838	
3	3896	3897	3839	
3	3954	3897	3896	
3	3954	3955	3897	
3	4012	3955	3954	
3	4012	4013	3955	
3	4070	4013	4012	
3	4070	4071	4013	
3	4128	4071	4070	
3	4128	4129	4071	
3	4186	4129	4128	
3	4186	4187	4129	
3	4244	4187	4186	
3	4244	4245	4187	
3	2598	4245	4244	
3	2598	2597	4245	
3	3781	124	125	
3	3781	3782	124	
3	3839	3782	3781	
3	3839	3840	3782	
3	3897	3840	3839	
3	3897	3898	3840	
3	3955	3898	3897	
3	3955	3956	3898	
3	4013	3956	3955	
3	4013	4014	3956	
3	4071	4014	4013	
3	4071	4072	4014	
3	4129	4072	4071	
3	4129	4130	4072	
3	4187	4130	4129	
3	4187	4188	4130	
3	4245	4188	4187	
3	4245	4246	4188	
3	2597	4246	4245	
3	2597	2596	4246	
3	3782	123	124	
3	3782	3783	123	
3	3840	3783	3782	
3	3840	3841	3783	
3	3898	3841	3840	
3	3898	3899	3841	
3	3956	3899	3898	
3	3956	3957	3899	
3	4014	3957	3956	
3	4014	4015	3957	
3	4072	4015	4014	
3	4072	4073	4015	
3	4130	4073	4072	
3	4130	4131	4073	
3	4188	4131	4130	
3	4188	4189	4131	
3	4246	4189	4188	
3	4246	4247	4189	
3	2596	4247	4246	
3	2596	2595	4247	
3	3783	122	123	
3	3783	3784	122	
3	3841	3784	3783	
3	3841	3842	3784	
3	3899	3842	3841	
3	3899	3900	3842	
3	3957	3900	3899	
3	3957	3958	3900	
3	4015	3958	3957	
3	4015	4016	3958	
3	4073	4016	4015	
3	4073	4074	4016	
3	4131	4074	4073	
3	4131	4132	4074	
3	4189	4132	4131	
3	4189	4190	4132	
3	4247	4190	4189	
3	4247	4248	4190	
3	2595	4248	4247	
3	2595	2594	4248	
3	3784	121	122	
3	3784	3785	121	
3	3842	3785	3784	
3	3842	3843	3785	
3	3900	3843	3842	
3	3900	3901	3843	
3	3958	3901	3900	
3	3958	3959	3901	
3	4016	3959	3958	
3	4016	4017	3959	
3	4074	4017	4016	
3	4074	4075	4017	
3	4132	4075	4074	
3	4132	4133	4075	
3	4190	4133	4132	
3	4190	4191	4133	
3	4248	4191	4190	
3	4248	4249	4191	
3	2594	4249	4248	
3	2594	2593	4249	
3	3785	120	121	
3	3785	3786	120	
3	3843	3786	3785	
3	3843	3844	3786	
3	3901	3844	3843	
3	3901	3902	3844	
3	3959	3902	3901	
3	3959	3960	3902	
3	4017	3960	3959	
3	4017	4018	3960	
3	4075	4018	4017	
3	4075	4076	4018	
3	4133	4076	4075	
3	4133	4134	4076	
3	4191	4134	4133	
3	4191	4192	4134	
3	4249	4192	4191	
3	4249	4250	4192	
3	2593	4250	4249	
3	2593	2592	4250	
3	3786	119	120	
3	3786	3787	119	
3	3844	3787	3786	
3	3844	3845	3787	
3	3902	3845	3844	
3	3902	3903	3845	
3	3960	3903	3902	
3	3960	3961	3903	
3	4018	3961	3960	
3	4018	4019	3961	
3	4076	4019	4018	
3	4076	4077	4019	
3	4134	4077	4076	
3	4134	4135	4077	
3	4192	4135	4134	
3	4192	4193	4135	
3	4250	4193	4192	
3	4250	4251	4193	
3	2592	4251	4250	
3	2592	2591	4251	
3	3787	118	119	
3	3787	3788	118	
3	3845	3788	3787	
3	3845	3846	3788	
3	3903	3846	3845	
3	3903	3904	3846	
3	3961	3904	3903	
3	3961	3962	3904	
3	4019	3962	3961	
3	4019	4020	3962	
3	4077	4020	4019	
3	4077	4078	4020	
3	4135	4078	4077	
3	4135	4136	4078	
3	4193	4136	4135	
3	4193	4194	4136	
3	4251	4194	4193	
3	4251	4252	4194	
3	2591	4252	4251	
3	2591	2590	4252	
3	3788	117	118	
3	3788	3789	117	
3	3846	3789	3788	
3	3846	3847	3789	
3	3904	3847	3846	
3	3904	3905	3847	
3	3962	3905	3904	
3	3962	3963	3905	
3	4020	3963	3962	
3	4020	4021	3963	
3	4078	4021	4020	
3	4078	4079	4021	
3	4136	4079	4078	
3	4136	4137	4079	
3	4194	4137	4136	
3	4194	4195	4137	
3	4252	4195	4194	
3	4252	4253	4195	
3	2590	4253	4252	
3	2590	2589	4253	
3	3789	116	117	
3	3789	3790	116	
3	3847	3790	3789	
3	3847	3848	3790	
3	3905	3848	3847	
3	3905	3906	3848	
3	3963	3906	3905	
3	3963	3964	3906	
3	4021	3964	3963	
3	4021	4022	3964	
3	4079	4022	4021	
3	4079	4080	4022	
3	4137	4080	4079	
3	4137	4138	4080	
3	4195	4138	4137	
3	4195	4196	4138	
3	4253	4196	4195	
3	4253	4254	4196	
3	2589	4254	4253	
3	2589	2588	4254	
3	3790	115	116	
3	3790	3791	115	
3	3848	3791	3790	
3	3848	3849	3791	
3	3906	3849	3848	
3	3906	3907	3849	
3	3964	3907	3906	
3	3964	3965	3907	
3	4022	3965	3964	
3	4022	4023	3965	
3	4080	4023	4022	
3	4080	4081	4023	
3	4138	4081	4080	
3	4138	4139	4081	
3	4196	4139	4138	
3	4196	4197	4139	
3	4254	4197	4196	
3	4254	4255	4197	
3	2588	4255	4254	
3	2588	2587	4255	
3	3791	114	115	
3	3791	3792	114	
3	3849	3792	3791	
3	3849	3850	3792	
3	3907	3850	3849	
3	3907	3908	3850	
3	3965	3908	3907	
3	3965	3966	3908	
3	4023	3966	3965	
3	4023	4024	3966	
3	4081	4024	4023	
3	4081	4082	4024	
3	4139	4082	4081	
3	4139	4140	4082	
3	4197	4140	4139	
3	4197	4198	4140	
3	4255	4198	4197	
3	4255	4256	4198	
3	2587	4256	4255	
3	2587	2586	4256	
3	3792	113	114	
3	3792	3793	113	
3	3850	3793	3792	
3	3850	3851	3793	
3	3908	3851	3850	
3	3908	3909	3851	
3	3966	3909	3908	
3	3966	3967	3909	
3	4024	3967	3966	
3	4024	4025	3967	
3	4082	4025	4024	
3	4082	4083	4025	
3	4140	4083	4082	
3	4140	4141	4083	
3	4198	4141	4140	
3	4198	4199	4141	
3	4256	4199	4198	
3	4256	4257	4199	
3	2586	4257	4256	
3	2586	2585	4257	
3	3793	112	113	
3	3793	3794	112	
3	3851	3794	3793	
3	3851	3852	3794	
3	3909	3852	3851	
3	3909	3910	3852	
3	3967	3910	3909	
3	3967	3968	3910	
3	4025	3968	3967	
3	4025	4026	3968	
3	4083	4026	4025	
3	4083	4084	4026	
3	4141	4084	4083	
3	4141	4142	4084	
3	4199	4142	4141	
3	4199	4200	4142	
3	4257	4200	4199	
3	4257	4258	4200	
3	2585	4258	4257	
3	2585	2584	4258	
3	3794	111	112	
3	3794	3795	111	
3	3852	3795	3794	
3	3852	3853	3795	
3	3910	3853	3852	
3	3910	3911	3853	
3	3968	3911	3910	
3	3968	3969	3911	
3	4026	3969	3968	
3	4026	4027	3969	
3	4084	4027	4026	
3	4084	4085	4027	
3	4142	4085	4084	
3	4142	4143	4085	
3	4200	4143	4142	
3	4200	4201	4143	
3	4258	4201	4200	
3	4258	4259	4201	
3	2584	4259	4258	
3	2584	2583	4259	
3	3795	110	111	
3	3795	3796	110	
3	3853	3796	3795	
3	3853	3854	3796	
3	3911	3854	3853	
3	3911	3912	3854	
3	3969	3912	3911	
3	3969	3970	3912	
3	4027	3970	3969	
3	4027	4028	3970	
3	4085	4028	4027	
3	4085	4086	4028	
3	4143	4086	4085	
3	4143	4144	4086	
3	4201	4144	4143	
3	4201	4202	4144	
3	4259	4202	4201	
3	4259	4260	4202	
3	2583	4260	4259	
3	2583	2582	4260	
3	3796	109	110	
3	3796	3797	109	
3	3854	3797	3796	
3	3854	3855	3797	
3	3912	3855	3854	
3	3912	3913	3855	
3	3970	3913	3912	
3	3970	3971	3913	
3	4028	3971	3970	
3	4028	4029	3971	
3	4086	4029	4028	
3	4086	4087	4029	
3	4144	4087	4086	
3	4144	4145	4087	
3	4202	4145	4144	
3	4202	4203	4145	
3	4260	4203	4202	
3	4260	4261	4203	
3	2582	4261	4260	
3	2582	2581	4261	
3	3797	108	109	
3	3797	3798	108	
3	3855	3798	3797	
3	3855	3856	3798	
3	3913	3856	3855	
3	3913	3914	3856	
3	3971	3914	3913	
3	3971	3972	3914	
3	4029	3972	3971	
3	4029	4030	3972	
3	4087	4030	4029	
3	4087	4088	4030	
3	4145	4088	4087	
3	4145	4146	4088	
3	4203	4146	4145	
3	4203	4204	4146	
3	4261	4204	4203	
3	4261	4262	4204	
3	2581	4262	4261	
3	2581	2580	4262	
3	3798	107	108	
3	3798	3799	107	
3	3856	3799	3798	
3	3856	3857	3799	
3	3914	3857	3856	
3	3914	3915	3857	
3	3972	3915	3914	
3	3972	3973	3915	
3	4030	3973	3972	
3	4030	4031	3973	
3	4088	4031	4030	
3	4088	4089	4031	
3	4146	4089	4088	
3	4146	4147	4089	
3	4204	4147	4146	
3	4204	4205	4147	
3	4262	4205	4204	
3	4262	4263	4205	
3	2580	4263	4262	
3	2580	2579	4263	
3	3799	106	107	
3	3799	3800	106	
3	3857	3800	3799	
3	3857	3858	3800	
3	3915	3858	3857	
3	3915	3916	3858	
3	3973	3916	3915	
3	3973	3974	3916	
3	4031	3974	3973	
3	4031	4032	3974	
3	4089	4032	4031	
3	4089	4090	4032	
3	4147	4090	4089	
3	4147	4148	4090	
3	4205	4148	4147	
3	4205	4206	4148	
3	4263	4206	4205	
3	4263	4264	4206	
3	2579	4264	4263	
3	2579	2578	4264	
3	3800	105	106	
3	3800	3801	105	
3	3858	3801	3800	
3	3858	3859	3801	
3	3916	3859	3858	
3	3916	3917	3859	
3	3974	3917	3916	
3	3974	3975	3917	
3	4032	3975	3974	
3	4032	4033	3975	
3	4090	4033	4032	
3	4090	4091	4033	
3	4148	4091	4090	
3	4148	4149	4091	
3	4206	4149	4148	
3	4206	4207	4149	
3	4264	4207	4206	
3	4264	4265	4207	
3	2578	4265	4264	
3	2578	2577	4265	
3	3801	104	105	
3	3801	3802	104	
3	3859	3802	3801	
3	3859	3860	3802	
3	3917	3860	3859	
3	3917	3918	3860	
3	3975	3918	3917	
3	3975	3976	3918	
3	4033	3976	3975	
3	4033	4034	3976	
3	4091	4034	4033	
3	4091	4092	4034	
3	4149	4092	4091	
3	4149	4150	4092	
3	4207	4150	4149	
3	4207	4208	4150	
3	4265	4208	4207	
3	4265	4266	4208	
3	2577	4266	4265	
3	2577	2576	4266	
3	3802	103	104	
3	3802	3803	103	
3	3860	3803	3802	
3	3860	3861	3803	
3	3918	3861	3860	
3	3918	3919	3861	
3	3976	3919	3918	
3	3976	3977	3919	
3	4034	3977	3976	
3	4034	4035	3977	
3	4092	4035	4034	
3	4092	4093	4035	
3	4150	4093	4092	
3	4150	4151	4093	
3	4208	4151	4150	
3	4208	4209	4151	
3	4266	4209	4208	
3	4266	4267	4209	
3	2576	4267	4266	
3	2576	2575	4267	
3	3803	102	103	
3	3803	3804	102	
3	3861	3804	3803	
3	3861	3862	3804	
3	3919	3862	3861	
3	3919	3920	3862	
3	3977	3920	3919	
3	3977	3978	3920	
3	4035	3978	3977	
3	4035	4036	3978	
3	4093	4036	4035	
3	4093	4094	4036	
3	4151	4094	4093	
3	4151	4152	4094	
3	4209	4152	4151	
3	4209	4210	4152	
3	4267	4210	4209	
3	4267	4268	4210	
3	2575	4268	4267	
3	2575	2574	4268	
3	3804	101	102	
3	3804	3805	101	
3	3862	3805	3804	
3	3862	3863	3805	
3	3920	3863	3862	
3	3920	3921	3863	
3	3978	3921	3920	
3	3978	3979	3921	
3	4036	3979	3978	
3	4036	4037	3979	
3	4094	4037	4036	
3	4094	4095	4037	
3	4152	4095	4094	
3	4152	4153	4095	
3	4210	4153	4152	
3	4210	4211	4153	
3	4268	4211	4210	
3	4268	4269	4211	
3	2574	4269	4268	
3	2574	2573	4269	
3	3805	100	101	
3	3805	3806	100	
3	3863	3806	3805	
3	3863	3864	3806	
3	3921	3864	3863	
3	3921	3922	3864	
3	3979	3922	3921	
3	3979	3980	3922	
3	4037	3980	3979	
3	4037	4038	3980	
3	4095	4038	4037	
3	4095	4096	4038	
3	4153	4096	4095	
3	4153	4154	4096	
3	4211	4154	4153	
3	4211	4212	4154	
3	4269	4212	4211	
3	4269	4270	4212	
3	2573	4270	4269	
3	2573	2572	4270	
3	3806	99	100	
3	3806	3807	99	
3	3864	3807	3806	
3	3864	3865	3807	
3	3922	3865	3864	
3	3922	3923	3865	
3	3980	3923	3922	
3	3980	3981	3923	
3	4038	3981	3980	
3	4038	4039	3981	
3	4096	4039	4038	
3	4096	4097	4039	
3	4154	4097	4096	
3	4154	4155	4097	
3	4212	4155	4154	
3	4212	4213	4155	
3	4270	4213	4212	
3	4270	4271	4213	
3	2572	4271	4270	
3	2572	2571	4271	
3	3807	98	99	
3	3807	3808	98	
3	3865	3808	3807	
3	3865	3866	3808	
3	3923	3866	3865	
3	3923	3924	3866	
3	3981	3924	3923	
3	3981	3982	3924	
3	4039	3982	3981	
3	4039	4040	3982	
3	4097	4040	4039	
3	4097	4098	4040	
3	4155	4098	4097	
3	4155	4156	4098	
3	4213	4156	4155	
3	4213	4214	4156	
3	4271	4214	4213	
3	4271	4272	4214	
3	2571	4272	4271	
3	2571	2570	4272	
3	3808	97	98	
3	3808	3809	97	
3	3866	3809	3808	
3	3866	3867	3809	
3	3924	3867	3866	
3	3924	3925	3867	
3	3982	3925	3924	
3	3982	3983	3925	
3	4040	3983	3982	
3	4040	4041	3983	
3	4098	4041	4040	
3	4098	4099	4041	
3	4156	4099	4098	
3	4156	4157	4099	
3	4214	4157	4156	
3	4214	4215	4157	
3	4272	4215	4214	
3	4272	4273	4215	
3	2570	4273	4272	
3	2570	2569	4273	
3	3809	96	97	
3	3809	3810	96	
3	3867	3810	3809	
3	3867	3868	3810	
3	3925	3868	3867	
3	3925	3926	3868	
3	3983	3926	3925	
3	3983	3984	3926	
3	4041	3984	3983	
3	4041	4042	3984	
3	4099	4042	4041	
3	4099	4100	4042	
3	4157	4100	4099	
3	4157	4158	4100	
3	4215	4158	4157	
3	4215	4216	4158	
3	4273	4216	4215	
3	4273	4274	4216	
3	2569	4274	4273	
3	2569	2568	4274	
3	3810	95	96	
3	3810	3811	95	
3	3868	3811	3810	
3	3868	3869	3811	
3	3926	3869	3868	
3	3926	3927	3869	
3	3984	3927	3926	
3	3984	3985	3927	
3	4042	3985	3984	
3	4042	4043	3985	
3	4100	4043	4042	
3	4100	4101	4043	
3	4158	4101	4100	
3	4158	4159	4101	
3	4216	4159	4158	
3	4216	4217	4159	
3	4274	4217	4216	
3	4274	4275	4217	
3	2568	4275	4274	
3	2568	2567	4275	
3	3811	94	95	
3	3811	3812	94	
3	3869	3812	3811	
3	3869	3870	3812	
3	3927	3870	3869	
3	3927	3928	3870	
3	3985	3928	3927	
3	3985	3986	3928	
3	4043	3986	3985	
3	4043	4044	3986	
3	4101	4044	4043	
3	4101	4102	4044	
3	4159	4102	4101	
3	4159	4160	4102	
3	4217	4160	4159	
3	4217	4218	4160	
3	4275	4218	4217	
3	4275	4276	4218	
3	2567	4276	4275	
3	2567	2566	4276	
3	3812	93	94	
3	3812	3813	93	
3	3870	3813	3812	
3	3870	3871	3813	
3	3928	3871	3870	
3	3928	3929	3871	
3	3986	3929	3928	
3	3986	3987	3929	
3	4044	3987	3986	
3	4044	4045	3987	
3	4102	4045	4044	
3	4102	4103	4045	
3	4160	4103	4102	
3	4160	4161	4103	
3	4218	4161	4160	
3	4218	4219	4161	
3	4276	4219	4218	
3	4276	4277	4219	
3	2566	4277	4276	
3	2566	2565	4277	
3	3813	92	93	
3	3813	3814	92	
3	3871	3814	3813	
3	3871	3872	3814	
3	3929	3872	3871	
3	3929	3930	3872	
3	3987	3930	3929	
3	3987	3988	3930	
3	4045	3988	3987	
3	4045	4046	3988	
3	4103	4046	4045	
3	4103	4104	4046	
3	4161	4104	4103	
3	4161	4162	4104	
3	4219	4162	4161	
3	4219	4220	4162	
3	4277	4220	4219	
3	4277	4278	4220	
3	2565	4278	4277	
3	2565	2564	4278	
3	3814	91	92	
3	3814	3815	91	
3	3872	3815	3814	
3	3872	3873	3815	
3	3930	3873	3872	
3	3930	3931	3873	
3	3988	3931	3930	
3	3988	3989	3931	
3	4046	3989	3988	
3	4046	4047	3989	
3	4104	4047	4046	
3	4104	4105	4047	
3	4162	4105	4104	
3	4162	4163	4105	
3	4220	4163	4162	
3	4220	4221	4163	
3	4278	4221	4220	
3	4278	4279	4221	
3	2564	4279	4278	
3	2564	2563	4279	
3	3815	90	91	
3	3815	3816	90	
3	3873	3816	3815	
3	3873	3874	3816	
3	3931	3874	3873	
3	3931	3932	3874	
3	3989	3932	3931	
3	3989	3990	3932	
3	4047	3990	3989	
3	4047	4048	3990	
3	4105	4048	4047	
3	4105	4106	4048	
3	4163	4106	4105	
3	4163	4164	4106	
3	4221	4164	4163	
3	4221	4222	4164	
3	4279	4222	4221	
3	4279	4280	4222	
3	2563	4280	4279	
3	2563	2562	4280	
3	3816	89	90	
3	3816	3817	89	
3	3874	3817	3816	
3	3874	3875	3817	
3	3932	3875	3874	
3	3932	3933	3875	
3	3990	3933	3932	
3	3990	3991	3933	
3	4048	3991	3990	
3	4048	4049	3991	
3	4106	4049	4048	
3	4106	4107	4049	
3	4164	4107	4106	
3	4164	4165	4107	
3	4222	4165	4164	
3	4222	4223	4165	
3	4280	4223	4222	
3	4280	4281	4223	
3	2562	4281	4280	
3	2562	2561	4281	
3	3817	88	89	
3	3817	3818	88	
3	3875	3818	3817	
3	3875	3876	3818	
3	3933	3876	3875	
3	3933	3934	3876	
3	3991	3934	3933	
3	3991	3992	3934	
3	4049	3992	3991	
3	4049	4050	3992	
3	4107	4050	4049	
3	4107	4108	4050	
3	4165	4108	4107	
3	4165	4166	4108	
3	4223	4166	4165	
3	4223	4224	4166	
3	4281	4224	4223	
3	4281	4282	4224	
3	2561	4282	4281	
3	2561	2560	4282	
3	3818	87	88	
3	3818	3819	87	
3	3876	3819	3818	
3	3876	3877	3819	
3	3934	3877	3876	
3	3934	3935	3877	
3	3992	3935	3934	
3	3992	3993	3935	
3	4050	3993	3992	
3	4050	4051	3993	
3	4108	4051	4050	
3	4108	4109	4051	
3	4166	4109	4108	
3	4166	4167	4109	
3	4224	4167	4166	
3	4224	4225	4167	
3	4282	4225	4224	
3	4282	4283	4225	
3	2560	4283	4282	
3	2560	2559	4283	
3	3819	86	87	
3	3819	3820	86	
3	3877	3820	3819	
3	3877	3878	3820	
3	3935	3878	3877	
3	3935	3936	3878	
3	3993	3936	3935	
3	3993	3994	3936	
3	4051	3994	3993	
3	4051	4052	3994	
3	4109	4052	4051	
3	4109	4110	4052	
3	4167	4110	4109	
3	4167	4168	4110	
3	4225	4168	4167	
3	4225	4226	4168	
3	4283	4226	4225	
3	4283	4284	4226	
3	2559	4284	4283	
3	2559	2558	4284	
3	3820	85	86	
3	3820	3821	85	
3	3878	3821	3820	
3	3878	3879	3821	
3	3936	3879	3878	
3	3936	3937	3879	
3	3994	3937	3936	
3	3994	3995	3937	
3	4052	3995	3994	
3	4052	4053	3995	
3	4110	4053	4052	
3	4110	4111	4053	
3	4168	4111	4110	
3	4168	4169	4111	
3	4226	4169	4168	
3	4226	4227	4169	
3	4284	4227	4226	
3	4284	4285	4227	
3	2558	4285	4284	
3	2558	2557	4285	
3	3821	84	85	
3	3821	3822	84	
3	3879	3822	3821	
3	3879	3880	3822	
3	3937	3880	3879	
3	3937	3938	3880	
3	3995	3938	3937	
3	3995	3996	3938	
3	4053	3996	3995	
3	4053	4054	3996	
3	4111	4054	4053	
3	4111	4112	4054	
3	4169	4112	4111	
3	4169	4170	4112	
3	4227	4170	4169	
3	4227	4228	4170	
3	4285	4228	4227	
3	4285	4286	4228	
3	2557	4286	4285	
3	2557	2556	4286	
3	3822	83	84	
3	3822	3823	83	
3	3880	3823	3822	
3	3880	3881	3823	
3	3938	3881	3880	
3	3938	3939	3881	
3	3996	3939	3938	
3	3996	3997	3939	
3	4054	3997	3996	
3	4054	4055	3997	
3	4112	4055	4054	
3	4112	4113	4055	
3	4170	4113	4112	
3	4170	4171	4113	
3	4228	4171	4170	
3	4228	4229	4171	
3	4286	4229	4228	
3	4286	4287	4229	
3	2556	4287	4286	
3	2556	2555	4287	
3	3823	82	83	
3	3823	3824	82	
3	3881	3824	3823	
3	3881	3882	3824	
3	3939	3882	3881	
3	3939	3940	3882	
3	3997	3940	3939	
3	3997	3998	3940	
3	4055	3998	3997	
3	4055	4056	3998	
3	4113	4056	4055	
3	4113	4114	4056	
3	4171	4114	4113	
3	4171	4172	4114	
3	4229	4172	4171	
3	4229	4230	4172	
3	4287	4230	4229	
3	4287	4288	4230	
3	2555	4288	4287	
3	2555	2554	4288	
3	3824	81	82	
3	3824	3825	81	
3	3882	3825	3824	
3	3882	3883	3825	
3	3940	3883	3882	
3	3940	3941	3883	
3	3998	3941	3940	
3	3998	3999	3941	
3	4056	3999	3998	
3	4056	4057	3999	
3	4114	4057	4056	
3	4114	4115	4057	
3	4172	4115	4114	
3	4172	4173	4115	
3	4230	4173	4172	
3	4230	4231	4173	
3	4288	4231	4230	
3	4288	4289	4231	
3	2554	4289	4288	
3	2554	2553	4289	
3	3825	80	81	
3	3825	3826	80	
3	3883	3826	3825	
3	3883	3884	3826	
3	3941	3884	3883	
3	3941	3942	3884	
3	3999	3942	3941	
3	3999	4000	3942	
3	4057	4000	3999	
3	4057	4058	4000	
3	4115	4058	4057	
3	4115	4116	4058	
3	4173	4116	4115	
3	4173	4174	4116	
3	4231	4174	4173	
3	4231	4232	4174	
3	4289	4232	4231	
3	4289	4290	4232	
3	2553	4290	4289	
3	2553	2552	4290	
3	3826	0	80	
3	3826	3759	0	
3	3884	3759	3826	
3	3884	3758	3759	
3	3942	3758	3884	
3	3942	3757	3758	
3	4000	3757	3942	
3	4000	3756	3757	
3	4058	3756	4000	
3	4058	3755	3756	
3	4116	3755	4058	
3	4116	3754	3755	
3	4174	3754	4116	
3	4174	3753	3754	
3	4232	3753	4174	
3	4232	3752	3753	
3	4290	3752	4232	
3	4290	3751	3752	
3	2552	3751	4290	
3	2552	2541	3751	
3	4299	672	662	
3	4299	4300	672	
3	4298	4300	4299	
3	4298	4301	4300	
3	4297	4301	4298	
3	4297	4302	4301	
3	4296	4302	4297	
3	4296	4303	4302	
3	4295	4303	4296	
3	4295	4304	4303	
3	4294	4304	4295	
3	4294	4305	4304	
3	4293	4305	4294	
3	4293	4306	4305	
3	4292	4306	4293	
3	4292	4307	4306	
3	4291	4307	4292	
3	4291	4308	4307	
3	3141	4308	4291	
3	3141	3142	4308	
3	4300	70	672	
3	4300	3768	70	
3	4301	3768	4300	
3	4301	3767	3768	
3	4302	3767	4301	
3	4302	3766	3767	
3	4303	3766	4302	
3	4303	3765	3766	
3	4304	3765	4303	
3	4304	3764	3765	
3	4305	3764	4304	
3	4305	3763	3764	
3	4306	3763	4305	
3	4306	3762	3763	
3	4307	3762	4306	
3	4307	3761	3762	
3	4308	3761	4307	
3	4308	3760	3761	
3	3142	3760	4308	
3	3142	2551	3760	
3	4317	808	741	
3	4317	4318	808	
3	4316	4318	4317	
3	4316	4376	4318	
3	4315	4376	4316	
3	4315	4434	4376	
3	4314	4434	4315	
3	4314	4492	4434	
3	4313	4492	4314	
3	4313	4550	4492	
3	4312	4550	4313	
3	4312	4608	4550	
3	4311	4608	4312	
3	4311	4666	4608	
3	4310	4666	4311	
3	4310	4724	4666	
3	4309	4724	4310	
3	4309	4782	4724	
3	3161	4782	4309	
3	3161	3219	4782	
3	4318	807	808	
3	4318	4319	807	
3	4376	4319	4318	
3	4376	4377	4319	
3	4434	4377	4376	
3	4434	4435	4377	
3	4492	4435	4434	
3	4492	4493	4435	
3	4550	4493	4492	
3	4550	4551	4493	
3	4608	4551	4550	
3	4608	4609	4551	
3	4666	4609	4608	
3	4666	4667	4609	
3	4724	4667	4666	
3	4724	4725	4667	
3	4782	4725	4724	
3	4782	4783	4725	
3	3219	4783	4782	
3	3219	3218	4783	
3	4319	806	807	
3	4319	4320	806	
3	4377	4320	4319	
3	4377	4378	4320	
3	4435	4378	4377	
3	4435	4436	4378	
3	4493	4436	4435	
3	4493	4494	4436	
3	4551	4494	4493	
3	4551	4552	4494	
3	4609	4552	4551	
3	4609	4610	4552	
3	4667	4610	4609	
3	4667	4668	4610	
3	4725	4668	4667	
3	4725	4726	4668	
3	4783	4726	4725	
3	4783	4784	4726	
3	3218	4784	4783	
3	3218	3217	4784	
3	4320	805	806	
3	4320	4321	805	
3	4378	4321	4320	
3	4378	4379	4321	
3	4436	4379	4378	
3	4436	4437	4379	
3	4494	4437	4436	
3	4494	4495	4437	
3	4552	4495	4494	
3	4552	4553	4495	
3	4610	4553	4552	
3	4610	4611	4553	
3	4668	4611	4610	
3	4668	4669	4611	
3	4726	4669	4668	
3	4726	4727	4669	
3	4784	4727	4726	
3	4784	4785	4727	
3	3217	4785	4784	
3	3217	3216	4785	
3	4321	804	805	
3	4321	4322	804	
3	4379	4322	4321	
3	4379	4380	4322	
3	4437	4380	4379	
3	4437	4438	4380	
3	4495	4438	4437	
3	4495	4496	4438	
3	4553	4496	4495	
3	4553	4554	4496	
3	4611	4554	4553	
3	4611	4612	4554	
3	4669	4612	4611	
3	4669	4670	4612	
3	4727	4670	4669	
3	4727	4728	4670	
3	4785	4728	4727	
3	4785	4786	4728	
3	3216	4786	4785	
3	3216	3215	4786	
3	4322	803	804	
3	4322	4323	803	
3	4380	4323	4322	
3	4380	4381	4323	
3	4438	4381	4380	
3	4438	4439	4381	
3	4496	4439	4438	
3	4496	4497	4439	
3	4554	4497	4496	
3	4554	4555	4497	
3	4612	4555	4554	
3	4612	4613	4555	
3	4670	4613	4612	
3	4670	4671	4613	
3	4728	4671	4670	
3	4728	4729	4671	
3	4786	4729	4728	
3	4786	4787	4729	
3	3215	4787	4786	
3	3215	3214	4787	
3	4323	802	803	
3	4323	4324	802	
3	4381	4324	4323	
3	4381	4382	4324	
3	4439	4382	4381	
3	4439	4440	4382	
3	4497	4440	4439	
3	4497	4498	4440	
3	4555	4498	4497	
3	4555	4556	4498	
3	4613	4556	4555	
3	4613	4614	4556	
3	4671	4614	4613	
3	4671	4672	4614	
3	4729	4672	4671	
3	4729	4730	4672	
3	4787	4730	4729	
3	4787	4788	4730	
3	3214	4788	4787	
3	3214	3213	4788	
3	4324	801	802	
3	4324	4325	801	
3	4382	4325	4324	
3	4382	4383	4325	
3	4440	4383	4382	
3	4440	4441	4383	
3	4498	4441	4440	
3	4498	4499	4441	
3	4556	4499	4498	
3	4556	4557	4499	
3	4614	4557	4556	
3	4614	4615	4557	
3	4672	4615	4614	
3	4672	4673	4615	
3	4730	4673	4672	
3	4730	4731	4673	
3	4788	4731	4730	
3	4788	4789	4731	
3	3213	4789	4788	
3	3213	3212	4789	
3	4325	800	801	
3	4325	4326	800	
3	4383	4326	4325	
3	4383	4384	4326	
3	4441	4384	4383	
3	4441	4442	4384	
3	4499	4442	4441	
3	4499	4500	4442	
3	4557	4500	4499	
3	4557	4558	4500	
3	4615	4558	4557	
3	4615	4616	4558	
3	4673	4616	4615	
3	4673	4674	4616	
3	4731	4674	4673	
3	4731	4732	4674	
3	4789	4732	4731	
3	4789	4790	4732	
3	3212	4790	4789	
3	3212	3211	4790	
3	4326	799	800	
3	4326	4327	799	
3	4384	4327	4326	
3	4384	4385	4327	
3	4442	4385	4384	
3	4442	4443	4385	
3	4500	4443	4442	
3	4500	4501	4443	
3	4558	4501	4500	
3	4558	4559	4501	
3	4616	4559	4558	
3	4616	4617	4559	
3	4674	4617	4616	
3	4674	4675	4617	
3	4732	4675	4674	
3	4732	4733	4675	
3	4790	4733	4732	
3	4790	4791	4733	
3	3211	4791	4790	
3	3211	3210	4791	
3	4327	798	799	
3	4327	4328	798	
3	4385	4328	4327	
3	4385	4386	4328	
3	4443	4386	4385	
3	4443	4444	4386	
3	4501	4444	4443	
3	4501	4502	4444	
3	4559	4502	4501	
3	4559	4560	4502	
3	4617	4560	4559	
3	4617	4618	4560	
3	4675	4618	4617	
3	4675	4676	4618	
3	4733	4676	4675	
3	4733	4734	4676	
3	4791	4734	4733	
3	4791	4792	4734	
3	3210	4792	4791	
3	3210	3209	4792	
3	4328	797	798	
3	4328	4329	797	
3	4386	4329	4328	
3	4386	4387	4329	
3	4444	4387	4386	
3	4444	4445	4387	
3	4502	4445	4444	
3	4502	4503	4445	
3	4560	4503	4502	
3	4560	4561	4503	
3	4618	4561	4560	
3	4618	4619	4561	
3	4676	4619	4618	
3	4676	4677	4619	
3	4734	4677	4676	
3	4734	4735	4677	
3	4792	4735	4734	
3	4792	4793	4735	
3	3209	4793	4792	
3	3209	3208	4793	
3	4329	796	797	
3	4329	4330	796	
3	4387	4330	4329	
3	4387	4388	4330	
3	4445	4388	4387	
3	4445	4446	4388	
3	4503	4446	4445	
3	4503	4504	4446	
3	4561	4504	4503	
3	4561	4562	4504	
3	4619	4562	4561	
3	4619	4620	4562	
3	4677	4620	4619	
3	4677	4678	4620	
3	4735	4678	4677	
3	4735	4736	4678	
3	4793	4736	4735	
3	4793	4794	4736	
3	3208	4794	4793	
3	3208	3207	4794	
3	4330	795	796	
3	4330	4331	795	
3	4388	4331	4330	
3	4388	4389	4331	
3	4446	4389	4388	
3	4446	4447	4389	
3	4504	4447	4446	
3	4504	4505	4447	
3	4562	4505	4504	
3	4562	4563	4505	
3	4620	4563	4562	
3	4620	4621	4563	
3	4678	4621	4620	
3	4678	4679	4621	
3	4736	4679	4678	
3	4736	4737	4679	
3	4794	4737	4736	
3	4794	4795	4737	
3	3207	4795	4794	
3	3207	3206	4795	
3	4331	794	795	
3	4331	4332	794	
3	4389	4332	4331	
3	4389	4390	4332	
3	4447	4390	4389	
3	4447	4448	4390	
3	4505	4448	4447	
3	4505	4506	4448	
3	4563	4506	4505	
3	4563	4564	4506	
3	4621	4564	4563	
3	4621	4622	4564	
3	4679	4622	4621	
3	4679	4680	4622	
3	4737	4680	4679	
3	4737	4738	4680	
3	4795	4738	4737	
3	4795	4796	4738	
3	3206	4796	4795	
3	3206	3205	4796	
3	4332	793	794	
3	4332	4333	793	
3	4390	4333	4332	
3	4390	4391	4333	
3	4448	4391	4390	
3	4448	4449	4391	
3	4506	4449	4448	
3	4506	4507	4449	
3	4564	4507	4506	
3	4564	4565	4507	
3	4622	4565	4564	
3	4622	4623	4565	
3	4680	4623	4622	
3	4680	4681	4623	
3	4738	4681	4680	
3	4738	4739	4681	
3	4796	4739	4738	
3	4796	4797	4739	
3	3205	4797	4796	
3	3205	3204	4797	
3	4333	792	793	
3	4333	4334	792	
3	4391	4334	4333	
3	4391	4392	4334	
3	4449	4392	4391	
3	4449	4450	4392	
3	4507	4450	4449	
3	4507	4508	4450	
3	4565	4508	4507	
3	4565	4566	4508	
3	4623	4566	4565	
3	4623	4624	4566	
3	4681	4624	4623	
3	4681	4682	4624	
3	4739	4682	4681	
3	4739	4740	4682	
3	4797	4740	4739	
3	4797	4798	4740	
3	3204	4798	4797	
3	3204	3203	4798	
3	4334	791	792	
3	4334	4335	791	
3	4392	4335	4334	
3	4392	4393	4335	
3	4450	4393	4392	
3	4450	4451	4393	
3	4508	4451	4450	
3	4508	4509	4451	
3	4566	4509	4508	
3	4566	4567	4509	
3	4624	4567	4566	
3	4624	4625	4567	
3	4682	4625	4624	
3	4682	4683	4625	
3	4740	4683	4682	
3	4740	4741	4683	
3	4798	4741	4740	
3	4798	4799	4741	
3	3203	4799	4798	
3	3203	3202	4799	
3	4335	790	791	
3	4335	4336	790	
3	4393	4336	4335	
3	4393	4394	4336	
3	4451	4394	4393	
3	4451	4452	4394	
3	4509	4452	4451	
3	4509	4510	4452	
3	4567	4510	4509	
3	4567	4568	4510	
3	4625	4568	4567	
3	4625	4626	4568	
3	4683	4626	4625	
3	4683	4684	4626	
3	4741	4684	4683	
3	4741	4742	4684	
3	4799	4742	4741	
3	4799	4800	4742	
3	3202	4800	4799	
3	3202	3201	4800	
3	4336	789	790	
3	4336	4337	789	
3	4394	4337	4336	
3	4394	4395	4337	
3	4452	4395	4394	
3	4452	4453	4395	
3	4510	4453	4452	
3	4510	4511	4453	
3	4568	4511	4510	
3	4568	4569	4511	
3	4626	4569	4568	
3	4626	4627	4569	
3	4684	4627	4626	
3	4684	4685	4627	
3	4742	4685	4684	
3	4742	4743	4685	
3	4800	4743	4742	
3	4800	4801	4743	
3	3201	4801	4800	
3	3201	3200	4801	
3	4337	788	789	
3	4337	4338	788	
3	4395	4338	4337	
3	4395	4396	4338	
3	4453	4396	4395	
3	4453	4454	4396	
3	4511	4454	4453	
3	4511	4512	4454	
3	4569	4512	4511	
3	4569	4570	4512	
3	4627	4570	4569	
3	4627	4628	4570	
3	4685	4628	4627	
3	4685	4686	4628	
3	4743	4686	4685	
3	4743	4744	4686	
3	4801	4744	4743	
3	4801	4802	4744	
3	3200	4802	4801	
3	3200	3199	4802	
3	4338	787	788	
3	4338	4339	787	
3	4396	4339	4338	
3	4396	4397	4339	
3	4454	4397	4396	
3	4454	4455	4397	
3	4512	4455	4454	
3	4512	4513	4455	
3	4570	4513	4512	
3	4570	4571	4513	
3	4628	4571	4570	
3	4628	4629	4571	
3	4686	4629	4628	
3	4686	4687	4629	
3	4744	4687	4686	
3	4744	4745	4687	
3	4802	4745	4744	
3	4802	4803	4745	
3	3199	4803	4802	
3	3199	3198	4803	
3	4339	786	787	
3	4339	4340	786	
3	4397	4340	4339	
3	4397	4398	4340	
3	4455	4398	4397	
3	4455	4456	4398	
3	4513	4456	4455	
3	4513	4514	4456	
3	4571	4514	4513	
3	4571	4572	4514	
3	4629	4572	4571	
3	4629	4630	4572	
3	4687	4630	4629	
3	4687	4688	4630	
3	4745	4688	4687	
3	4745	4746	4688	
3	4803	4746	4745	
3	4803	4804	4746	
3	3198	4804	4803	
3	3198	3197	4804	
3	4340	785	786	
3	4340	4341	785	
3	4398	4341	4340	
3	4398	4399	4341	
3	4456	4399	4398	
3	4456	4457	4399	
3	4514	4457	4456	
3	4514	4515	4457	
3	4572	4515	4514	
3	4572	4573	4515	
3	4630	4573	4572	
3	4630	4631	4573	
3	4688	4631	4630	
3	4688	4689	4631	
3	4746	4689	4688	
3	4746	4747	4689	
3	4804	4747	4746	
3	4804	4805	4747	
3	3197	4805	4804	
3	3197	3196	4805	
3	4341	784	785	
3	4341	4342	784	
3	4399	4342	4341	
3	4399	4400	4342	
3	4457	4400	4399	
3	4457	4458	4400	
3	4515	4458	4457	
3	4515	4516	4458	
3	4573	4516	4515	
3	4573	4574	4516	
3	4631	4574	4573	
3	4631	4632	4574	
3	4689	4632	4631	
3	4689	4690	4632	
3	4747	4690	4689	
3	4747	4748	4690	
3	4805	4748	4747	
3	4805	4806	4748	
3	3196	4806	4805	
3	3196	3195	4806	
3	4342	783	784	
3	4342	4343	783	
3	4400	4343	4342	
3	4400	4401	4343	
3	4458	4401	4400	
3	4458	4459	4401	
3	4516	4459	4458	
3	4516	4517	4459	
3	4574	4517	4516	
3	4574	4575	4517	
3	4632	4575	4574	
3	4632	4633	4575	
3	4690	4633	4632	
3	4690	4691	4633	
3	4748	4691	4690	
3	4748	4749	4691	
3	4806	4749	4748	
3	4806	4807	4749	
3	3195	4807	4806	
3	3195	3194	4807	
3	4343	782	783	
3	4343	4344	782	
3	4401	4344	4343	
3	4401	4402	4344	
3	4459	4402	4401	
3	4459	4460	4402	
3	4517	4460	4459	
3	4517	4518	4460	
3	4575	4518	4517	
3	4575	4576	4518	
3	4633	4576	4575	
3	4633	4634	4576	
3	4691	4634	4633	
3	4691	4692	4634	
3	4749	4692	4691	
3	4749	4750	4692	
3	4807	4750	4749	
3	4807	4808	4750	
3	3194	4808	4807	
3	3194	3193	4808	
3	4344	781	782	
3	4344	4345	781	
3	4402	4345	4344	
3	4402	4403	4345	
3	4460	4403	4402	
3	4460	4461	4403	
3	4518	4461	4460	
3	4518	4519	4461	
3	4576	4519	4518	
3	4576	4577	4519	
3	4634	4577	4576	
3	4634	4635	4577	
3	4692	4635	4634	
3	4692	4693	4635	
3	4750	4693	4692	
3	4750	4751	4693	
3	4808	4751	4750	
3	4808	4809	4751	
3	3193	4809	4808	
3	3193	3192	4809	
3	4345	780	781	
3	4345	4346	780	
3	4403	4346	4345	
3	4403	4404	4346	
3	4461	4404	4403	
3	4461	4462	4404	
3	4519	4462	4461	
3	4519	4520	4462	
3	4577	4520	4519	
3	4577	4578	4520	
3	4635	4578	4577	
3	4635	4636	4578	
3	4693	4636	4635	
3	4693	4694	4636	
3	4751	4694	4693	
3	4751	4752	4694	
3	4809	4752	4751	
3	4809	4810	4752	
3	3192	4810	4809	
3	3192	3191	4810	
3	4346	779	780	
3	4346	4347	779	
3	4404	4347	4346	
3	4404	4405	4347	
3	4462	4405	4404	
3	4462	4463	4405	
3	4520	4463	4462	
3	4520	4521	4463	
3	4578	4521	4520	
3	4578	4579	4521	
3	4636	4579	4578	
3	4636	4637	4579	
3	4694	4637	4636	
3	4694	4695	4637	
3	4752	4695	4694	
3	4752	4753	4695	
3	4810	4753	4752	
3	4810	4811	4753	
3	3191	4811	4810	
3	3191	3190	4811	
3	4347	778	779	
3	4347	4348	778	
3	4405	4348	4347	
3	4405	4406	4348	
3	4463	4406	4405	
3	4463	4464	4406	
3	4521	4464	4463	
3	4521	4522	4464	
3	4579	4522	4521	
3	4579	4580	4522	
3	4637	4580	4579	
3	4637	4638	4580	
3	4695	4638	4637	
3	4695	4696	4638	
3	4753	4696	4695	
3	4753	4754	4696	
3	4811	4754	4753	
3	4811	4812	4754	
3	3190	4812	4811	
3	3190	3189	4812	
3	4348	777	778	
3	4348	4349	777	
3	4406	4349	4348	
3	4406	4407	4349	
3	4464	4407	4406	
3	4464	4465	4407	
3	4522	4465	4464	
3	4522	4523	4465	
3	4580	4523	4522	
3	4580	4581	4523	
3	4638	4581	4580	
3	4638	4639	4581	
3	4696	4639	4638	
3	4696	4697	4639	
3	4754	4697	4696	
3	4754	4755	4697	
3	4812	4755	4754	
3	4812	4813	4755	
3	3189	4813	4812	
3	3189	3188	4813	
3	4349	776	777	
3	4349	4350	776	
3	4407	4350	4349	
3	4407	4408	4350	
3	4465	4408	4407	
3	4465	4466	4408	
3	4523	4466	4465	
3	4523	4524	4466	
3	4581	4524	4523	
3	4581	4582	4524	
3	4639	4582	4581	
3	4639	4640	4582	
3	4697	4640	4639	
3	4697	4698	4640	
3	4755	4698	4697	
3	4755	4756	4698	
3	4813	4756	4755	
3	4813	4814	4756	
3	3188	4814	4813	
3	3188	3187	4814	
3	4350	775	776	
3	4350	4351	775	
3	4408	4351	4350	
3	4408	4409	4351	
3	4466	4409	4408	
3	4466	4467	4409	
3	4524	4467	4466	
3	4524	4525	4467	
3	4582	4525	4524	
3	4582	4583	4525	
3	4640	4583	4582	
3	4640	4641	4583	
3	4698	4641	4640	
3	4698	4699	4641	
3	4756	4699	4698	
3	4756	4757	4699	
3	4814	4757	4756	
3	4814	4815	4757	
3	3187	4815	4814	
3	3187	3186	4815	
3	4351	774	775	
3	4351	4352	774	
3	4409	4352	4351	
3	4409	4410	4352	
3	4467	4410	4409	
3	4467	4468	4410	
3	4525	4468	4467	
3	4525	4526	4468	
3	4583	4526	4525	
3	4583	4584	4526	
3	4641	4584	4583	
3	4641	4642	4584	
3	4699	4642	4641	
3	4699	4700	4642	
3	4757	4700	4699	
3	4757	4758	4700	
3	4815	4758	4757	
3	4815	4816	4758	
3	3186	4816	4815	
3	3186	3185	4816	
3	4352	773	774	
3	4352	4353	773	
3	4410	4353	4352	
3	4410	4411	4353	
3	4468	4411	4410	
3	4468	4469	4411	
3	4526	4469	4468	
3	4526	4527	4469	
3	4584	4527	4526	
3	4584	4585	4527	
3	4642	4585	4584	
3	4642	4643	4585	
3	4700	4643	4642	
3	4700	4701	4643	
3	4758	4701	4700	
3	4758	4759	4701	
3	4816	4759	4758	
3	4816	4817	4759	
3	3185	4817	4816	
3	3185	3184	4817	
3	4353	772	773	
3	4353	4354	772	
3	4411	4354	4353	
3	4411	4412	4354	
3	4469	4412	4411	
3	4469	4470	4412	
3	4527	4470	4469	
3	4527	4528	4470	
3	4585	4528	4527	
3	4585	4586	4528	
3	4643	4586	4585	
3	4643	4644	4586	
3	4701	4644	4643	
3	4701	4702	4644	
3	4759	4702	4701	
3	4759	4760	4702	
3	4817	4760	4759	
3	4817	4818	4760	
3	3184	4818	4817	
3	3184	3183	4818	
3	4354	771	772	
3	4354	4355	771	
3	4412	4355	4354	
3	4412	4413	4355	
3	4470	4413	4412	
3	4470	4471	4413	
3	4528	4471	4470	
3	4528	4529	4471	
3	4586	4529	4528	
3	4586	4587	4529	
3	4644	4587	4586	
3	4644	4645	4587	
3	4702	4645	4644	
3	4702	4703	4645	
3	4760	4703	4702	
3	4760	4761	4703	
3	4818	4761	4760	
3	4818	4819	4761	
3	3183	4819	4818	
3	3183	3182	4819	
3	4355	770	771	
3	4355	4356	770	
3	4413	4356	4355	
3	4413	4414	4356	
3	4471	4414	4413	
3	4471	4472	4414	
3	4529	4472	4471	
3	4529	4530	4472	
3	4587	4530	4529	
3	4587	4588	4530	
3	4645	4588	4587	
3	4645	4646	4588	
3	4703	4646	4645	
3	4703	4704	4646	
3	4761	4704	4703	
3	4761	4762	4704	
3	4819	4762	4761	
3	4819	4820	4762	
3	3182	4820	4819	
3	3182	3181	4820	
3	4356	769	770	
3	4356	4357	769	
3	4414	4357	4356	
3	4414	4415	4357	
3	4472	4415	4414	
3	4472	4473	4415	
3	4530	4473	4472	
3	4530	4531	4473	
3	4588	4531	4530	
3	4588	4589	4531	
3	4646	4589	4588	
3	4646	4647	4589	
3	4704	4647	4646	
3	4704	4705	4647	
3	4762	4705	4704	
3	4762	4763	4705	
3	4820	4763	4762	
3	4820	4821	4763	
3	3181	4821	4820	
3	3181	3180	4821	
3	4357	768	769	
3	4357	4358	768	
3	4415	4358	4357	
3	4415	4416	4358	
3	4473	4416	4415	
3	4473	4474	4416	
3	4531	4474	4473	
3	4531	4532	4474	
3	4589	4532	4531	
3	4589	4590	4532	
3	4647	4590	4589	
3	4647	4648	4590	
3	4705	4648	4647	
3	4705	4706	4648	
3	4763	4706	4705	
3	4763	4764	4706	
3	4821	4764	4763	
3	4821	4822	4764	
3	3180	4822	4821	
3	3180	3179	4822	
3	4358	767	768	
3	4358	4359	767	
3	4416	4359	4358	
3	4416	4417	4359	
3	4474	4417	4416	
3	4474	4475	4417	
3	4532	4475	4474	
3	4532	4533	4475	
3	4590	4533	4532	
3	4590	4591	4533	
3	4648	4591	4590	
3	4648	4649	4591	
3	4706	4649	4648	
3	4706	4707	4649	
3	4764	4707	4706	
3	4764	4765	4707	
3	4822	4765	4764	
3	4822	4823	4765	
3	3179	4823	4822	
3	3179	3178	4823	
3	4359	766	767	
3	4359	4360	766	
3	4417	4360	4359	
3	4417	4418	4360	
3	4475	4418	4417	
3	4475	4476	4418	
3	4533	4476	4475	
3	4533	4534	4476	
3	4591	4534	4533	
3	4591	4592	4534	
3	4649	4592	4591	
3	4649	4650	4592	
3	4707	4650	4649	
3	4707	4708	4650	
3	4765	4708	4707	
3	4765	4766	4708	
3	4823	4766	4765	
3	4823	4824	4766	
3	3178	4824	4823	
3	3178	3177	4824	
3	4360	765	766	
3	4360	4361	765	
3	4418	4361	4360	
3	4418	4419	4361	
3	4476	4419	4418	
3	4476	4477	4419	
3	4534	4477	4476	
3	4534	4535	4477	
3	4592	4535	4534	
3	4592	4593	4535	
3	4650	4593	4592	
3	4650	4651	4593	
3	4708	4651	4650	
3	4708	4709	4651	
3	4766	4709	4708	
3	4766	4767	4709	
3	4824	4767	4766	
3	4824	4825	4767	
3	3177	4825	4824	
3	3177	3176	4825	
3	4361	764	765	
3	4361	4362	764	
3	4419	4362	4361	
3	4419	4420	4362	
3	4477	4420	4419	
3	4477	4478	4420	
3	4535	4478	4477	
3	4535	4536	4478	
3	4593	4536	4535	
3	4593	4594	4536	
3	4651	4594	4593	
3	4651	4652	4594	
3	4709	4652	4651	
3	4709	4710	4652	
3	4767	4710	4709	
3	4767	4768	4710	
3	4825	4768	4767	
3	4825	4826	4768	
3	3176	4826	4825	
3	3176	3175	4826	
3	4362	763	764	
3	4362	4363	763	
3	4420	4363	4362	
3	4420	4421	4363	
3	4478	4421	4420	
3	4478	4479	4421	
3	4536	4479	4478	
3	4536	4537	4479	
3	4594	4537	4536	
3	4594	4595	4537	
3	4652	4595	4594	
3	4652	4653	4595	
3	4710	4653	4652	
3	4710	4711	4653	
3	4768	4711	4710	
3	4768	4769	4711	
3	4826	4769	4768	
3	4826	4827	4769	
3	3175	4827	4826	
3	3175	3174	4827	
3	4363	762	763	
3	4363	4364	762	
3	4421	4364	4363	
3	4421	4422	4364	
3	4479	4422	4421	
3	4479	4480	4422	
3	4537	4480	4479	
3	4537	4538	4480	
3	4595	4538	4537	
3	4595	4596	4538	
3	4653	4596	4595	
3	4653	4654	4596	
3	4711	4654	4653	
3	4711	4712	4654	
3	4769	4712	4711	
3	4769	4770	4712	
3	4827	4770	4769	
3	4827	4828	4770	
3	3174	4828	4827	
3	3174	3173	4828	
3	4364	761	762	
3	4364	4365	761	
3	4422	4365	4364	
3	4422	4423	4365	
3	4480	4423	4422	
3	4480	4481	4423	
3	4538	4481	4480	
3	4538	4539	4481	
3	4596	4539	4538	
3	4596	4597	4539	
3	4654	4597	4596	
3	4654	4655	4597	
3	4712	4655	4654	
3	4712	4713	4655	
3	4770	4713	4712	
3	4770	4771	4713	
3	4828	4771	4770	
3	4828	4829	4771	
3	3173	4829	4828	
3	3173	3172	4829	
3	4365	760	761	
3	4365	4366	760	
3	4423	4366	4365	
3	4423	4424	4366	
3	4481	4424	4423	
3	4481	4482	4424	
3	4539	4482	4481	
3	4539	4540	4482	
3	4597	4540	4539	
3	4597	4598	4540	
3	4655	4598	4597	
3	4655	4656	4598	
3	4713	4656	4655	
3	4713	4714	4656	
3	4771	4714	4713	
3	4771	4772	4714	
3	4829	4772	4771	
3	4829	4830	4772	
3	3172	4830	4829	
3	3172	3171	4830	
3	4366	759	760	
3	4366	4367	759	
3	4424	4367	4366	
3	4424	4425	4367	
3	4482	4425	4424	
3	4482	4483	4425	
3	4540	4483	4482	
3	4540	4541	4483	
3	4598	4541	4540	
3	4598	4599	4541	
3	4656	4599	4598	
3	4656	4657	4599	
3	4714	4657	4656	
3	4714	4715	4657	
3	4772	4715	4714	
3	4772	4773	4715	
3	4830	4773	4772	
3	4830	4831	4773	
3	3171	4831	4830	
3	3171	3170	4831	
3	4367	758	759	
3	4367	4368	758	
3	4425	4368	4367	
3	4425	4426	4368	
3	4483	4426	4425	
3	4483	4484	4426	
3	4541	4484	4483	
3	4541	4542	4484	
3	4599	4542	4541	
3	4599	4600	4542	
3	4657	4600	4599	
3	4657	4658	4600	
3	4715	4658	4657	
3	4715	4716	4658	
3	4773	4716	4715	
3	4773	4774	4716	
3	4831	4774	4773	
3	4831	4832	4774	
3	3170	4832	4831	
3	3170	3169	4832	
3	4368	757	758	
3	4368	4369	757	
3	4426	4369	4368	
3	4426	4427	4369	
3	4484	4427	4426	
3	4484	4485	4427	
3	4542	4485	4484	
3	4542	4543	4485	
3	4600	4543	4542	
3	4600	4601	4543	
3	4658	4601	4600	
3	4658	4659	4601	
3	4716	4659	4658	
3	4716	4717	4659	
3	4774	4717	4716	
3	4774	4775	4717	
3	4832	4775	4774	
3	4832	4833	4775	
3	3169	4833	4832	
3	3169	3168	4833	
3	4369	756	757	
3	4369	4370	756	
3	4427	4370	4369	
3	4427	4428	4370	
3	4485	4428	4427	
3	4485	4486	4428	
3	4543	4486	4485	
3	4543	4544	4486	
3	4601	4544	4543	
3	4601	4602	4544	
3	4659	4602	4601	
3	4659	4660	4602	
3	4717	4660	4659	
3	4717	4718	4660	
3	4775	4718	4717	
3	4775	4776	4718	
3	4833	4776	4775	
3	4833	4834	4776	
3	3168	4834	4833	
3	3168	3167	4834	
3	4370	755	756	
3	4370	4371	755	
3	4428	4371	4370	
3	4428	4429	4371	
3	4486	4429	4428	
3	4486	4487	4429	
3	4544	4487	4486	
3	4544	4545	4487	
3	4602	4545	4544	
3	4602	4603	4545	
3	4660	4603	4602	
3	4660	4661	4603	
3	4718	4661	4660	
3	4718	4719	4661	
3	4776	4719	4718	
3	4776	4777	4719	
3	4834	4777	4776	
3	4834	4835	4777	
3	3167	4835	4834	
3	3167	3166	4835	
3	4371	754	755	
3	4371	4372	754	
3	4429	4372	4371	
3	4429	4430	4372	
3	4487	4430	4429	
3	4487	4488	4430	
3	4545	4488	4487	
3	4545	4546	4488	
3	4603	4546	4545	
3	4603	4604	4546	
3	4661	4604	4603	
3	4661	4662	4604	
3	4719	4662	4661	
3	4719	4720	4662	
3	4777	4720	4719	
3	4777	4778	4720	
3	4835	4778	4777	
3	4835	4836	4778	
3	3166	4836	4835	
3	3166	3165	4836	
3	4372	753	754	
3	4372	4373	753	
3	4430	4373	4372	
3	4430	4431	4373	
3	4488	4431	4430	
3	4488	4489	4431	
3	4546	4489	4488	
3	4546	4547	4489	
3	4604	4547	4546	
3	4604	4605	4547	
3	4662	4605	4604	
3	4662	4663	4605	
3	4720	4663	4662	
3	4720	4721	4663	
3	4778	4721	4720	
3	4778	4779	4721	
3	4836	4779	4778	
3	4836	4837	4779	
3	3165	4837	4836	
3	3165	3164	4837	
3	4373	752	753	
3	4373	4374	752	
3	4431	4374	4373	
3	4431	4432	4374	
3	4489	4432	4431	
3	4489	4490	4432	
3	4547	4490	4489	
3	4547	4548	4490	
3	4605	4548	4547	
3	4605	4606	4548	
3	4663	4606	4605	
3	4663	4664	4606	
3	4721	4664	4663	
3	4721	4722	4664	
3	4779	4722	4721	
3	4779	4780	4722	
3	4837	4780	4779	
3	4837	4838	4780	
3	3164	4838	4837	
3	3164	3163	4838	
3	4374	751	752	
3	4374	4375	751	
3	4432	4375	4374	
3	4432	4433	4375	
3	4490	4433	4432	
3	4490	4491	4433	
3	4548	4491	4490	
3	4548	4549	4491	
3	4606	4549	4548	
3	4606	4607	4549	
3	4664	4607	4606	
3	4664	4665	4607	
3	4722	4665	4664	
3	4722	4723	4665	
3	4780	4723	4722	
3	4780	4781	4723	
3	4838	4781	4780	
3	4838	4839	4781	
3	3163	4839	4838	
3	3163	3162	4839	
3	4375	662	751	
3	4375	4299	662	
3	4433	4299	4375	
3	4433	4298	4299	
3	4491	4298	4433	
3	4491	4297	4298	
3	4549	4297	4491	
3	4549	4296	4297	
3	4607	4296	4549	
3	4607	4295	4296	
3	4665	4295	4607	
3	4665	4294	4295	
3	4723	4294	4665	
3	4723	4293	4294	
3	4781	4293	4723	
3	4781	4292	4293	
3	4839	4292	4781	
3	4839	4291	4292	
3	3162	4291	4839	
3	3162	3141	4291	
CELL_TYPES	9600
5
5
5
5
5
5
5
5
5
5
5
5
5
5
5
5
5
5
5
5
5
5
5
5
5
5
5
5
5
5
5
5
5
5
5
5
5
5
5
5
5
5
5
5
5
5
5
5
5
5
5
5
5
5
5
5
5
5
5
5
5
5
5
5
5
5
5
5
5
5
5
5
5
5
5
5
5
5
5
5
5
5
5
5
5
5
5
5
5
5
5
5
5
5
5
5
5
5
5
5
5
5
5
5
5
5
5
5
5
5
5
5
5
5
5
5
5
5
5
5
5
5
5
5
5
5
5
5
5
5
5
5
5
5
5
5
5
5
5
5
5
5
5
5
5
5
5
5
5
5
5
5
5
5
5
5
5
5
5
5
5
5
5
5
5
5
5
5
5
5
5
5
5
5
5
5
5
5
5
5
5
5
5
5
5
5
5
5
5
5
5
5
5
5
5
5
5
5
5
5
5
5
5
5
5
5
5
5
5
5
5
5
5
5
5
5
5
5
5
5
5
5
5
5
5
5
5
5
5
5
5
5
5
5
5
5
5
5
5
5
5
5
5
5
5
5
5
5
5
5
5
5
5
5
5
5
5
5
5
5
5
5
5
5
5
5
5
5
5
5
5
5
5
5
5
5
5
5
5
5
5
5
5
5
5
5
5
5
5
5
5
5
5
5
5
5
5
5
5
5
5
5
5
5
5
5
5
5
5
5
5
5
5
5
5
5
5
5
5
5
5
5
5
5
5
5
5
5
5
5
5
5
5
5
5
5
5
5
5
5
5
5
5
5
5
5
5
5
5
5
5
5
5
5
5
5
5
5
5
5
5
5
5
5
5
5
5
5
5
5
5
5
5
5
5
5
5
5
5
5
5
5
5
5
5
5
5
5
5
5
5
5
5
5
5
5
5
5
5
5
5
5
5
5
5
5
5
5
5
5
5
5
5
5
5
5
5
5
5
5
5
5
5
5
5
5
5
5
5
5
5
5
5
5
5
5
5
5
5
5
5
5
5
5
5
5
5
5
5
5
5
5
5
5
5
5
5
5
5
5
5
5
5
5
5
5
5
5
5
5
5
5
5
5
5
5
5
5
5
5
5
5
5
5
5
5
5
5
5
5
5
5
5
5
5
5
5
5
5
5
5
5
5
5
5
5
5
5
5
5
5
5
5
5
5
5
5
5
5
5
5
5
5
5
5
5
5
5
5
5
5
5
5
5
5
5
5
5
5
5
5
5
5
5
5
5
5
5
5
5
5
5
5
5
5
5
5
5
5
5
5
5
5
5
5
5
5
5
5
5
5
5
5
5
5
5
5
5
5
5
5
5
5
5
5
5
5
5
5
5
5
5
5
5
5
5
5
5
5
5
5
5
5
5
5
5
5
5
5
5
5
5
5
5
5
5
5
5
5
5
5
5
5
5
5
5
5
5
5
5
5
5
5
5
5
5
5
5
5
5
5
5
5
5
5
5
5
5
5
5
5
5
5
5
5
5
5
5
5
5
5
5
5
5
5
5
5
5
5
5
5
5
5
5
5
5
5
5
5
5
5
5
5
5
5
5
5
5
5
5
5
5
5
5
5
5
5
5
5
5
5
5
5
5
5
5
5
5
5
5
5
5
5
5
5
5
5
5
5
5
5
5
5
5
5
5
5
5
5
5
5
5
5
5
5
5
5
5
5
5
5
5
5
5
5
5
5
5
5
5
5
5
5
5
5
5
5
5
5
5
5
5
5
5
5
5
5
5
5
5
5
5
5
5
5
5
5
5
5
5
5
5
5
5
5
5
5
5
5
5
5
5
5
5
5
5
5
5
5
5
5
5
5
5
5
5
5
5
5
5
5
5
5
5
5
5
5
5
5
5
5
5
5
5
5
5
5
5
5
5
5
5
5
5
5
5
5
5
5
5
5
5
5
5
5
5
5
5
5
5
5
5
5
5
5
5
5
5
5
5
5
5
5
5
5
5
5
5
5
5
5
5
5
5
5
5
5
5
5
5
5
5
5
5
5
5
5
5
5
5
5
5
5
5
5
5
5
5
5
5
5
5
5
5
5
5
5
5
5
5
5
5
5
5
5
5
5
5
5
5
5
5
5
5
5
5
5
5
5
5
5
5
5
5
5
5
5
5
5
5
5
5
5
5
5
5
5
5
5
5
5
5
5
5
5
5
5
5
5
5
5
5
5
5
5
5
5
5
5
5
5
5
5
5
5
5
5
5
5
5
5
5
5
5
5
5
5
5
5
5
5
5
5
5
5
5
5
5
5
5
5
5
5
5
5
5
5
5
5
5
5
5
5
5
5
5
5
5
5
5
5
5
5
5
5
5
5
5
5
5
5
5
5
5
5
5
5
5
5
5
5
5
5
5
5
5
5
5
5
5
5
5
5
5
5
5
5
5
5
5
5
5
5
5
5
5
5
5
5
5
5
5
5
5
5
5
5
5
5
5
5
5
5
5
5
5
5
5
5
5
5
5
5
5
5
5
5
5
5
5
5
5
5
5
5
5
5
5
5
5
5
5
5
5
5
5
5
5
5
5
5
5
5
5
5
5
5
5
5
5
5
5
5
5
5
5
5
5
5
5
5
5
5
5
5
5
5
5
5
5
5
5
5
5
5
5
5
5
5
5
5
5
5
5
5
5
5
5
5
5
5
5
5
5
5
5
5
5
5
5
5
5
5
5
5
5
5
5
5
5
5
5
5
5
5
5
5
5
5
5
5
5
5
5
5
5
5
5
5
5
5
5
5
5
5
5
5
5
5
5
5
5
5
5
5
5
5
5
5
5
5
5
5
5
5
5
5
5
5
5
5
5
5
5
5
5
5
5
5
5
5
5
5
5
5
5
5
5
5
5
5
5
5
5
5
5
5
5
5
5
5
5
5
5
5
5
5
5
5
5
5
5
5
5
5
5
5
5
5
5
5
5
5
5
5
5
5
5
5
5
5
5
5
5
5
5
5
5
5
5
5
5
5
5
5
5
5
5
5
5
5
5
5
5
5
5
5
5
5
5
5
5
5
5
5
5
5
5
5
5
5
5
5
5
5
5
5
5
5
5
5
5
5
5
5
5
5
5
5
5
5
5
5
5
5
5
5
5
5
5
5
5
5
5
5
5
5
5
5
5
5
5
5
5
5
5
5
5
5
5
5
5
5
5
5
5
5
5
5
5
5
5
5
5
5
5
5
5
5
5
5
5
5
5
5
5
5
5
5
5
5
5
5
5
5
5
5
5
5
5
5
5
5
5
5
5
5
5
5
5
5
5
5
5
5
5
5
5
5
5
5
5
5
5
5
5
5
5
5
5
5
5
5
5
5
5
5
5
5
5
5
5
5
5
5
5
5
5
5
5
5
5
5
5
5
5
5
5
5
5
5
5
5
5
5
5
5
5
5
5
5
5
5
5
5
5
5
5
5
5
5
5
5
5
5
5
5
5
5
5
5
5
5
5
5
5
5
5
5
5
5
5
5
5
5
5
5
5
5
5
5
5
5
5
5
5
5
5
5
5
5
5
5
5
5
5
5
5
5
5
5
5
5
5
5
5
5
5
5
5
5
5
5
5
5
5
5
5
5
5
5
5
5
5
5
5
5
5
5
5
5
5
5
5
5
5
5
5
5
5
5
5
5
5
5
5
5
5
5
5
5
5
5
5
5
5
5
5
5
5
5
5
5
5
5
5
5
5
5
5
5
5
5
5
5
5
5
5
5
5
5
5
5
5
5
5
5
5
5
5
5
5
5
5
5
5
5
5
5
5
5
5
5
5
5
5
5
5
5
5
5
5
5
5
5
5
5
5
5
5
5
5
5
5
5
5
5
5
5
5
5
5
5
5
5
5
5
5
5
5
5
5
5
5
5
5
5
5
5
5
5
5
5
5
5
5
5
5
5
5
5
5
5
5
5
5
5
5
5
5
5
5
5
5
5
5
5
5
5
5
5
5
5
5
5
5
5
5
5
5
5
5
5
5
5
5
5
5
5
5
5
5
5
5
5
5
5
5
5
5
5
5
5
5
5
5
5
5
5
5
5
5
5
5
5
5
5
5
5
5
5
5
5
5
5
5
5
5
5
5
5
5
5
5
5
5
5
5
5
5
5
5
5
5
5
5
5
5
5
5
5
5
5
5
5
5
5
5
5
5
5
5
5
5
5
5
5
5
5
5
5
5
5
5
5
5
5
5
5
5
5
5
5
5
5
5
5
5
5
5
5
5
5
5
5
5
5
5
5
5
5
5
5
5
5
5
5
5
5
5
5
5
5
5
5
5
5
5
5
5
5
5
5
5
5
5
5
5
5
5
5
5
5
5
5
5
5
5
5
5
5
5
5
5
5
5
5
5
5
5
5
5
5
5
5
5
5
5
5
5
5
5
5
5
5
5
5
5
5
5
5
5
5
5
5
5
5
5
5
5
5
5
5
5
5
5
5
5
5
5
5
5
5
5
5
5
5
5
5
5
5
5
5
5
5
5
5
5
5
5
5
5
5
5
5
5
5
5
5
5
5
5
5
5
5
5
5
5
5
5
5
5
5
5
5
5
5
5
5
5
5
5
5
5
5
5
5
5
5
5
5
5
5
5
5
5
5
5
5
5
5
5
5
5
5
5
5
5
5
5
5
5
5
5
5
5
5
5
5
5
5
5
5
5
5
5
5
5
5
5
5
5
5
5
5
5
5
5
5
5
5
5
5
5
5
5
5
5
5
5
5
5
5
5
5
5
5
5
5
5
5
5
5
5
5
5
5
5
5
5
5
5
5
5
5
5
5
5
5
5
5
5
5
5
5
5
5
5
5
5
5
5
5
5
5
5
5
5
5
5
5
5
5
5
5
5
5
5
5
5
5
5
5
5
5
5
5
5
5
5
5
5
5
5
5
5
5
5
5
5
5
5
5
5
5
5
5
5
5
5
5
5
5
5
5
5
5
5
5
5
5
5
5
5
5
5
5
5
5
5
5
5
5
5
5
5
5
5
5
5
5
5
5
5
5
5
5
5
5
5
5
5
5
5
5
5
5
5
5
5
5
5
5
5
5
5
5
5
5
5
5
5
5
5
5
5
5
5
5
5
5
5
5
5
5
5
5
5
5
5
5
5
5
5
5
5
5
5
5
5
5
5
5
5
5
5
5
5
5
5
5
5
5
5
5
5
5
5
5
5
5
5
5
5
5
5
5
5
5
5
5
5
5
5
5
5
5
5
5
5
5
5
5
5
5
5
5
5
5
5
5
5
5
5
5
5
5
5
5
5
5
5
5
5
5
5
5
5
5
5
5
5
5
5
5
5
5
5
5
5
5
5
5
5
5
5
5
5
5
5
5
5
5
5
5
5
5
5
5
5
5
5
5
5
5
5
5
5
5
5
5
5
5
5
5
5
5
5
5
5
5
5
5
5
5
5
5
5
5
5
5
5
5
5
5
5
5
5
5
5
5
5
5
5
5
5
5
5
5
5
5
5
5
5
5
5
5
5
5
5
5
5
5
5
5
5
5
5
5
5
5
5
5
5
5
5
5
5
5
5
5
5
5
5
5
5
5
5
5
5
5
5
5
5
5
5
5
5
5
5
5
5
5
5
5
5
5
5
5
5
5
5
5
5
5
5
5
5
5
5
5
5
5
5
5
5
5
5
5
5
5
5
5
5
5
5
5
5
5
5
5
5
5
5
5
5
5
5
5
5
5
5
5
5
5
5
5
5
5
5
5
5
5
5
5
5
5
5
5
5
5
5
5
5
5
5
5
5
5
5
5
5
5
5
5
5
5
5
5
5
5
5
5
5
5
5
5
5
5
5
5
5
5
5
5
5
5
5
5
5
5
5
5
5
5
5
5
5
5
5
5
5
5
5
5
5
5
5
5
5
5
5
5
5
5
5
5
5
5
5
5
5
5
5
5
5
5
5
5
5
5
5
5
5
5
5
5
5
5
5
5
5
5
5
5
5
5
5
5
5
5
5
5
5
5
5
5
5
5
5
5
5
5
5
5
5
5
5
5
5
5
5
5
5
5
5
5
5
5
5
5
5
5
5
5
5
5
5
5
5
5
5
5
5
5
5
5
5
5
5
5
5
5
5
5
5
5
5
5
5
5
5
5
5
5
5
5
5
5
5
5
5
5
5
5
5
5
5
5
5
5
5
5
5
5
5
5
5
5
5
5
5
5
5
5
5
5
5
5
5
5
5
5
5
5
5
5
5
5
5
5
5
5
5
5
5
5
5
5
5
5
5
5
5
5
5
5
5
5
5
5
5
5
5
5
5
5
5
5
5
5
5
5
5
5
5
5
5
5
5
5
5
5
5
5
5
5
5
5
5
5
5
5
5
5
5
5
5
5
5
5
5
5
5
5
5
5
5
5
5
5
5
5
5
5
5
5
5
5
5
5
5
5
5
5
5
5
5
5
5
5
5
5
5
5
5
5
5
5
5
5
5
5
5
5
5
5
5
5
5
5
5
5
5
5
5
5
5
5
5
5
5
5
5
5
5
5
5
5
5
5
5
5
5
5
5
5
5
5
5
5
5
5
5
5
5
5
5
5
5
5
5
5
5
5
5
5
5
5
5
5
5
5
5
5
5
5
5
5
5
5
5
5
5
5
5
5
5
5
5
5
5
5
5
5
5
5
5
5
5
5
5
5
5
5
5
5
5
5
5
5
5
5
5
5
5
5
5
5
5
5
5
5
5
5
5
5
5
5
5
5
5
5
5
5
5
5
5
5
5
5
5
5
5
5
5
5
5
5
5
5
5
5
5
5
5
5
5
5
5
5
5
5
5
5
5
5
5
5
5
5
5
5
5
5
5
5
5
5
5
5
5
5
5
5
5
5
5
5
5
5
5
5
5
5
5
5
5
5
5
5
5
5
5
5
5
5
5
5
5
5
5
5
5
5
5
5
5
5
5
5
5
5
5
5
5
5
5
5
5
5
5
5
5
5
5
5
5
5
5
5
5
5
5
5
5
5
5
5
5
5
5
5
5
5
5
5
5
5
5
5
5
5
5
5
5
5
5
5
5
5
5
5
5
5
5
5
5
5
5
5
5
5
5
5
5
5
5
5
5
5
5
5
5
5
5
5
5
5
5
5
5
5
5
5
5
5
5
5
5
5
5
5
5
5
5
5
5
5
5
5
5
5
5
5
5
5
5
5
5
5
5
5
5
5
5
5
5
5
5
5
5
5
5
5
5
5
5
5
5
5
5
5
5
5
5
5
5
5
5
5
5
5
5
5
5
5
5
5
5
5
5
5
5
5
5
5
5
5
5
5
5
5
5
5
5
5
5
5
5
5
5
5
5
5
5
5
5
5
5
5
5
5
5
5
5
5
5
5
5
5
5
5
5
5
5
5
5
5
5
5
5
5
5
5
5
5
5
5
5
5
5
5
5
5
5
5
5
5
5
5
5
5
5
5
5
5
5
5
5
5
5
5
5
5
5
5
5
5
5
5
5
5
5
5
5
5
5
5
5
5
5
5
5
5
5
5
5
5
5
5
5
5
5
5
5
5
5
5
5
5
5
5
5
5
5
5
5
5
5
5
5
5
5
5
5
5
5
5
5
5
5
5
5
5
5
5
5
5
5
5
5
5
5
5
5
5
5
5
5
5
5
5
5
5
5
5
5
5
5
5
5
5
5
5
5
5
5
5
5
5
5
5
5
5
5
5
5
5
5
5
5
5
5
5
5
5
5
5
5
5
5
5
5
5
5
5
5
5
5
5
5
5
5
5
5
5
5
5
5
5
5
5
5
5
5
5
5
5
5
5
5
5
5
5
5
5
5
5
5
5
5
5
5
5
5
5
5
5
5
5
5
5
5
5
5
5
5
5
5
5
5
5
5
5
5
5
5
5
5
5
5
5
5
5
5
5
5
5
5
5
5
5
5
5
5
5
5
5
5
5
5
5
5
5
5
5
5
5
5
5
5
5
5
5
5
5
5
5
5
5
5
5
5
5
5
5
5
5
5
5
5
5
5
5
5
5
5
5
5
5
5
5
5
5
5
5
5
5
5
5
5
5
5
5
5
5
5
5
5
5
5
5
5
5
5
5
5
5
5
5
5
5
5
5
5
5
5
5
5
5
5
5
5
5
5
5
5
5
5
5
5
5
5
5
5
5
5
5
5
5
5
5
5
5
5
5
5
5
5
5
5
5
5
5
5
5
5
5
5
5
5
5
5
5
5
5
5
5
5
5
5
5
5
5
5
5
5
5
5
5
5
5
5
5
5
5
5
5
5
5
5
5
5
5
5
5
5
5
5
5
5
5
5
5
5
5
5
5
5
5
5
5
5
5
5
5
5
5
5
5
5
5
5
5
5
5
5
5
5
5
5
5
5
5
5
5
5
5
5
5
5
5
5
5
5
5
5
5
5
5
5
5
5
5
5
5
5
5
5
5
5
5
5
5
5
5
5
5
5
5
5
5
5
5
5
5
5
5
5
5
5
5
5
5
5
5
5
5
5
5
5
5
5
5
5
5
5
5
5
5
5
5
5
5
5
5
5
5
5
5
5
5
5
5
5
5
5
5
5
5
5
5
5
5
5
5
5
5
5
5
5
5
5
5
5
5
5
5
5
5
5
5
5
5
5
5
5
5
5
5
5
5
5
5
5
5
5
5
5
5
5
5
5
5
5
5
5
5
5
5
5
5
5
5
5
5
5
5
5
5
5
5
5
5
5
5
5
5
5
5
5
5
5
5
5
5
5
5
5
5
5
5
5
5
5
5
5
5
5
5
5
5
5
5
5
5
5
5
5
5
5
5
5
5
5
5
5
5
5
5
5
5
5
5
5
5
5
5
5
5
5
5
5
5
5
5
5
5
5
5
5
5
5
5
5
5
5
5
5
5
5
5
5
5
5
5
5
5
5
5
5
5
5
5
5
5
5
5
5
5
5
5
5
5
5
5
5
5
5
5
5
5
5
5
5
5
5
5
5
5
5
5
5
5
5
5
5
5
5
5
5
5
5
5
5
5
5
5
5
5
5
5
5
5
5
5
5
5
5
5
5
5
5
5
5
5
5
5
5
5
5
5
5
5
5
5
5
5
5
5
5
5
5
5
5
5
5
5
5
5
5
5
5
5
5
5
5
5
5
5
5
5
5
5
5
5
5
5
5
5
5
5
5
5
5
5
5
5
5
5
5
5
5
5
5
5
5
5
5
5
5
5
5
5
5
5
5
5
5
5
5
5
5
5
5
5
5
5
5
5
5
5
5
5
5
5
5
5
5
5
5
5
5
5
5
5
5
5
5
5
5
5
5
5
5
5
5
5
5
5
5
5
5
5
5
5
5
5
5
5
5
5
5
5
5
5
5
5
5
5
5
5
5
5
5
5
5
5
5
5
5
5
5
5
5
5
5
5
5
5
5
5
5
5
5
5
5
5
5
5
5
5
5
5
5
5
5
5
5
5
5
5
5
5
5
5
5
5
5
5
5
5
5
5
5
5
5
5
5
5
5
5
5
5
5
5
5
5
5
5
5
5
5
5
5
5
5
5
5
5
5
5
5
5
5
5
5
5
5
5
5
5
5
5
5
5
5
5
5
5
5
5
5
5
5
5
5
5
5
5
5
5
5
5
5
5
5
5
5
5
5
5
5
5
5
5
5
5
5
5
5
5
5
5
5
5
5
5
5
5
5
5
5
5
5
5
5
5
5
5
5
5
5
5
5
5
5
5
5
5
5
5
5
5
5
5
5
5
5
5
5
5
5
5
5
5
5
5
5
5
5
5
5
5
5
5
5
5
5
5
5
5
5
5
5
5
5
5
5
5
5
5
5
5
5
5
5
5
5
5
5
5
5
5
5
5
5
5
5
5
5
5
5
5
5
5
5
5
5
5
5
5
5
5
5
5
5
5
5
5
5
5
5
5
5
5
5
5
5
5
5
5
5
5
5
5
5
5
5
5
5
5
5
5
5
5
5
5
5
5
5
5
5
5
5
5
5
5
5
5
5
5
5
5
5
5
5
5
5
5
5
5
5
5
5
5
5
5
5
5
5
5
5
5
5
5
5
5
5
5
5
5
5
5
5
5
5
5
5
5
5
5
5
5
5
5
5
5
5
5
5
5
5
5
5
5
5
5
5
5
5
5
5
5
5
5
5
5
5
5
5
5
5
5
5
5
5
5
5
5
5
5
5
5
5
5
5
5
5
5
5
5
5
5
5
5
5
5
5
5
5
5
5
5
5
5
5
5
5
5
5
5
5
5
5
5
5
5
5
5
5
5
5
5
5
5
5
5
5
5
5
5
5
5
5
5
5
5
5
5
5
5
5
5
5
5
5
5
5
5
5
5
5
5
5
5
5
5
5
5
5
5
5
5
5
5
5
5
5
5
5
5
5
5
5
5
5
5
5
5
5
5
5
5
5
5
5
5
5
5
5
5
5
5
5
5
5
5
5
5
5
5
5
5
5
5
5
5
5
5
5
5
5
5
5
5
5
5
5
5
5
5
5
5
5
5
5
5
5
5
5
5
5
5
5
5
5
5
5
5
5
5
5
5
5
5
5
5
5
5
5
5
5
5
5
5
5
5
5
5
5
5
5
5
5
5
5
5
5
5
5
5
5
5
5
5
5
5
5
5
5
5
5
5
5
5
5
5
5
5
5
5
5
5
5
5
5
5
5
5
5
5
5
5
5
5
5
5
5
5
5
5
5
5
5
5
5
5
5
5
5
5
5
5
5
5
5
5
5
5
5
5
5
5
5
5
5
5
5
5
5
5
5
5
5
5
5
5
5
5
5
5
5
5
5
5
5
5
5
5
5
5
5
5
5
5
5
5
5
5
5
5
5
5
5
5
5
5
5
5
5
5
5
5
5
5
5
5
5
5
5
5
5
5
5
5
5
5
5
5
5
5
5
5
5
5
5
5
5
5
5
5
5
5
5
5
5
5
5
5
5
5
5
5
5
5
5
5
5
5
5
5
5
5
5
5
5
5
5
5
5
5
5
5
5
5
5
5
5
5
5
5
5
5
5
5
5
5
5
5
5
5
5
5
5
5
5
5
5
5
5
5
5
5
5
5
5
5
5
5
5
5
5
5
5
5
5
5
5
5
5
5
5
5
5
5
5
5
5
5
5
5
5
5
5
5
5
5
5
5
5
5
5
5
5
5
5
5
5
5
5
5
5
5
5
5
5
5
5
5
5
5
5
5
5
5
5
5
5
5
5
5
5
5
5
5
5
5
5
5
5
5
5
5
5
5
5
5
5
5
5
5
5
5
5
5
5
5
5
5
5
5
5
5
5
5
5
5
5
5
5
5
5
5
5
5
5
5
5
5
5
5
5
5
5
5
5
5
5
5
5
5
5
5
5
5
5
5
5
5
5
5
5
5
5
5
5
5
5
5
5
5
5
5
5
5
5
5
5
5
5
5
5
5
5
5
5
5
5
5
5
5
5
5
5
5
5
5
5
5
5
5
5
5
5
5
5
5
5
5
5
5
5
5
5
5
5
5
5
5
5
5
5
5
5
5
5
5
5
5
5
5
5
5
5
5
5
5
5
5
5
5
5
5
5
5
5
5
5
5
5
5
5
5
5
5
5
5
5
5
5
5
5
5
5
5
5
5
5
5
5
5
5
5
5
5
5
5
5
5
5
5
5
5
5
5
5
5
5
5
5
5
5
5
5
5
5
5
5
5
5
5
5
5
5
5
5
5
5
5
5
5
5
5
5
5
5
5
5
5
5
5
5
5
5
5
5
5
5
5
5
5
5
5
5
5
5
5
5
5
5
5
5
5
5
5
5
5
5
5
5
5
5
5
5
5
5
5
5
5
5
5
5
5
5
5
5
5
5
5
5
5
5
5
5
5
5
5
5
5
5
5
5
5
5
5
5
5
5
5
5
5
5
5
5
5
5
5
5
5
5
5
5
5
5
5
5
5
5
5
5
5
5
5
5
5
5
5
5
5
5
5
5
5
5
5
5
5
5
5
5
5
5
5
5
5
5
5
5
5
5
5
5
5
5
5
5
5
5
5
5
5
5
5
5
5
5
5
5
5
5
5
5
5
5
5
5
5
5
5
5
5
5
5
5
5
5
5
5
5
5
5
5
5
5
5
5
5
5
5
5
5
5
5
5
5
5
5
5
5
5
5
5
5
5
5
5
5
5
5
5
5
5
5
5
5
5
5
5
5
5
5
5
5
5
5
5
5
5
5
5
5
5
5
5
5
5
5
5
5
5
5
5
5
5
5
5
5
5
5
5
5
5
5
5
5
5
5
5
5
5
5
5
5
5
5
5
5
5
5
5
5
5
5
5
5
5
5
5
5
5
5
5
5
5
5
5
5
5
5
5
5
5
5
5
5
5
5
5
5
5
5
5
5
5
5
5
5
5
5
5
5
5
5
5
5
5
5
5
5
5
5
5
5
5
5
5
5
5
5
5
5
5
5
5
5
5
5
5
5
5
5
5
5
5
5
5
5
5
5
5
5
5
5
5
5
5
5
5
5
5
5
5
5
5
5
5
5
5
5
5
5
5
5
5
5
5
5
5
5
5
5
5
5
5
5
5
5
5
5
5
5
5
5
5
5
5
5
5
5
5
5
5
5
5
5
5
5
5
5
5
5
5
5
5
5
5
5
5
5
5
5
5
5
5
5
5
5
5
5
5
5
5
5
5
5
5
5
5
5
5
5
5
5
5
5
5
5
5
5
5
5
5
5
5
5
5
5
5
5
5
5
5
5
5
5
5
5
5
5
5
5
5
5
5
5
5
5
5
5
5
5
5
5
5
5
5
5
5
5
5
5
5
5
5
5
5
5
5
5
5
5
5
5
5
5
5
5
5
5
5
5
5
5
5
5
5
5
5
5
5
5
5
5
5
5
5
5
5
5
5
5
5
5
5
5
5
5
5
5
5
5
5
5
5
5
5
5
5
5
5
5
5
5
5
5
5
5
5
5
5
5
5
5
5
5
5
5
5
5
5
5
5
5
5
5
5
5
5
5
5
5
5
5
5
5
5
5
5
5
5
5
5
5
5
5
5
5
5
5
5
5
5
5
5
5
5
5
5
5
5
5
5
5
5
5
5
5
5
5
5
5
5
5
5
5
5
5
5
5
5
5
5
5
5
5
5
5
5
5
5
5
5
5
5
5
5
5
5
5
5
5
5
5
5
5
5
5
5
5
5
5
5
5
5
5
5
5
5
5
5
5
5
5
5
5
5
5
5
5
5
5
5
5
5
5
5
5
5
5
5
5
5
5
5
5
5
5
5
5
5
5
5
5
5
5
5
5
5
5
5
5
5
5
5
5
5
5
5
5
5
5
5
5
5
5
5
5
5
5
5
5
5
5
5
5
5
5
5
5
5
5
5
5
5
5
5
5
5
5
5
5
5
5
5
5
5
5
5
5
5
5
5
5
5
5
5
5
5
5
5
5
5
5
5
5
5
5
5
5
5
5
5
5
5
5
5
5
5
5
5
5
5
5
5
5
5
5
5
5
5
5
5
5
5
5
5
5
5
5
5
5
5
5
5
5
5
5
5
5
5
5
5
5
5
5
5
5
5
5
5
5
5
5
5
5
5
5
5
5
5
5
5
5
5
5
5
5
5
5
5
5
5
5
5
5
5
5
5
5
5
5
5
5
5
5
5
5
5
5
5
5
5
5
5
5
5
5
5
5
5
5
5
5
5
5
5
5
5
5
5
5
5
5
5
5
5
5
5
5
5
5
5
5
5
5
5
5
5
5
5
5
5
5
5
5
5
5
5
5
5
5
5
5
5
5
5
5
5
5
5
5
5
5
5
5
5
5
5
5
5
5
5
5
5
5
5
5
5
5
5
5
5
5
5
5
5
5
5
5
5
5
5
5
5
5
5
5
5
5
5
5
5
5
5
5
5
5
5
5
5
5
5
5
5
5
5
5
5
5
5
5
5
5
5
5
5
5
5
5
5
5
5
5
5
5
5
5
5
5
5
5
5
5
5
5
5
5
5
5
5
5
5
5
5
5
5
5
5
5
5
5
5
5
5
5
5
5
5
5
5
5
5
5
5
5
5
5
5
5
5
5
5
5
5
5
5
5
5
5
5
5
5
5
5
5
5
5
5
5
5
5
5
5
5
5
5
5
5
5
5
5
5
5
5
5
5
5
5
5
5
5
5
5
5
5
5
5
5
5
5
5
5
5
5
5
5
5
5
5
5
5
5
5
5
5
5
5
5
5
5
5
5
5
5
5
5
5
5
5
5
5
5
5
5
5
5
5
5
5
5
5
5
5
5
5
5
5
5
5
5
5
5
5
5
5
5
5
5
5
5
5
5
5
5
5
5
5
5
5
5
5
5
5
5
5
5
5
5
5
5
5
5
5
5
5
5
5
5
5
5
5
5
5
5
5
5
5
5
5
5
5
5
5
5
5
5
5
5
5
5
5
5
5
5
5
5
5
5
5
5
5
5
5
5
5
5
5
5
5
5
5
5
5
5
5
5
5
5
5
5
5
5
5
5
5
5
5
5
5
5
5
5
5
5
5
5
5
5
5
5
5
5
5
5
5
5
5
5
5
5
5
5
5
5
5
5
5
5
5
5
5
5
5
5
5
5
5
5
5
5
5
5
5
5
5
5
5
5
5
5
5
5
5
5
5
5
5
5
5
5
5
5
5
5
5
5
5
5
5
5
5
5
5
5
5
5
5
5
5
5
5
5
5
5
5
5
5
5
5
5
5
5
5
5
5
5
5
5
5
5
5
5
5
5
5
5
5
5
5
5
5
5
5
5
5
5
5
5
5
5
5
5
5
5
5
5
5
5
5
5
5
5
5
5
5
5
5
5
5
5
5
5
5
5
5
5
5
5
5
5
5
5
5
5
5
5
5
5
5
5
5
5
5
5
5
5
5
5
5
5
5
5
5
5
5
5
5
5
5
5
5
5
5
5
5
5
5
5
5
5
5
5
5
5
5
5
5
5
5
5
5
5
5
5
5
5
5
5
5
5
5
5
5
5
5
5
5
5
5
5
5
5
5
5
5
5
5
5
5
5
5
5
5
5
5
5
5
5
5
5
5
5
5
5
5
5
5
5
5
5
5
5
5
5
5
5
5
5
5
5
5
5
5
5
5
5
5
5
5
5
5
5
5
5
5
5
5
5
5
5
5
5
5
5
5
5
5
5
5
5
5
5
5
5
5
5
5
5
5
5
5
5
5
5
5
5
5
5
5
5
5
5
5
5
5
5
5
5
5
5
5
5
5
5
5
5
5
5
5
5
5
5
5
5
5
5
5
5
5
5
5
5
5
5
5
5
5
5
5
5
5
5
5
5
5
5
5
5
5
5
5
5
5
5
5
5
5
5
5
5
5
5
5
5
5
5
5
5
5
5
5
5
5
5
5
5
5
5
5
5
5
5
5
5
5
5
5
5
5
5
5
5
5
5
5
5
5
5
5
5
5
5
5
5
5
5
5
5
5
5
5
5
5
5
5
5
5
5
5
5
5
5
5
5
5
5
5
5
5
5
5
5
5
5
5
5
5
5
5
5
5
5
5
5
5
5
5
5
5
5
5
5
5
5
5
5
5
5
5
5
5
5
5
5
5
5
5
5
5
5
5
5
5
5
5
5
5
5
5
5
5
5
5
5
5
5
5
5
5
5
5
5
5
5
5
5
5
5
5
5
5
5
5
5
5
5
5
5
5
5
5
5
5
5
5
5
5
5
5
5
5
5
5
5
5
5
5
5
5
5
5
5
5
5
5
5
5
5
5
5
5
5
5
5
5
5
5
5
5
5
5
5
5
5
5
5
5
5
5
5
5
5
5
5
5
5
5
5
5
5
5
5
5
5
5
5
5
5
5
5
5
5
5
5
5
5
5
5
5
5
5
5
5
5
5
5
5
5
5
5
5
5
5
5
5
5
5
5
5
5
5
5
5
5
5
5
5
5
5
5
5
5
5
5
5
5
5
5
5
5
5
5
5
5
5
5
5
5
5
5
5
5
5
5
5
5
5
5
5
5
5
5
5
5
5
5
5
5
5
5
5
5
5
5
5
5
5
5
5
5
5
5
5
5
5
5
5
5
5
5
5
5
5
5
5
5
5
5
5
5
5
5
5
5
5
5
5
5
5
5
5
5
5
5
5
5
5
5
5
5
5
5
5
5
5
5
5
5
5
5
5
5
5
5
5
5
5
5
5
5
5
5
5
5
5
5
5
5
5
5
5
5
5
5
5
5
5
5
5
5
5
5
5
5
5
5
5
5
5
5
5
5
5
5
5
5
5
5
5
5
5
5
5
5
5
5
5
5
5
5
5
5
5
5
5
5
5
5
5
5
5
5
5
5
5
5
5
5
5
5
5
5
5
5
5
5
5
5
5
5
5
5
5
5
5
5
5
5
5
5
5
5
5
5
5
5
5
5
5
5
5
5
5
5
5
5
5
5
5
5
5
5
5
5
5
5
5
5
5
5
5
5
5
5
5
5
5
5
5
5
5
5
5
5
5
5
5
5
5
5
5
5
5
5
5
5
5
5
5
5
5
5
5
5
5
5
5
5
5
5
5
5
5
5
5
5
5
5
5
5
5
5
5
5
5
5
5
5
5
5
5
5
5
5
5
5
5
5
5
5
5
5
5
5
5
5
5
5
5
5
5
5
5
5
5
5
5
5
5
5
5
5
5
5
5
5
5
5
5
5
5
5
5
5
5
5
5
5
5
5
5
5
5
5
5
5
5
5
5
5
5
5
5
5
5
5
5
5
5
5
5
5
5
5
5
5
5
5
5
5
5
5
5
5
5
5
5
5
5
5
5
5
5
5
5
5
5
5
5
5
5
5
5
5
5
5
5
5
5
5
5
5
5
5
5
5
5
5
5
5
5
5
5
5
5
5
5
5
5
5
5
5
5
5
5
5
5
5
5
5
5
5
5
5
5
5
5
5
5
5
5
5
5
5
5
5
5
5
5
5
5
5
5
5
5
5
5
5
5
5
5
5
5
5
5
5
5
5
5
5
5
5
5
5
5
5
5
5
5
5
5
5
5
5
5
5
5
5
5
5
5
5
5
5
5
5
5
5
5
5
5
5
5
5
5
5
5
5
5
5
5
5
5
5
5
5
5
5
5
5
5
5
5
5
5
5
5
5
5
5
5
5
5
5
5
5
5
5
5
5
5
5
5
5
5
5
5
5
5
5
5
5
5
5
5
5
5
5
5
5
5
5
5
5
5
5
5
5
5
5
5
5
5
5
5
5
5
5
5
5
5
5
5
5
5
5
5
5
5
5
5
5
5
5
5
5
5
5
5
5
5
5
5
5
5
5
5
5
5
5
5
5
5
5
5
5
5
5
5
5
5
5
5
5
5
5
5
5
5
5
5
5
5
5
5
5
5
5
5
5
5
5
5
5
5
5
5
5
5
5
5
5
5
5
5
5
5
5
5
5
5
5
5
5
5
5
5
5
5
5
5
5
5
5
5
5
5
5
5
5
5
5
5
5
5
5
5
5
5
5
5
5
5
5
5
5
5
5
5
5
5
5
5
5
5
5
5
5
5
5
5
5
5
5
5
5
5
5
5
5
5
5
5
5
5
5
5
5
5
5
5
5
5
5
5
5
5
5
5
5
5
5
5
5
5
5
5
5
5
5
5
5
5
5
5
5
5
5
5
5
5
5
5
5
5
5
5
5
5
5
5
5
5
5
5
5
5
5
5
5
5
5
5
5
5
5
5
5
5
5
5
5
5
5
5
5
5
5
5
5
5
5
5
5
5
5
5
5
5
5
5
5
5
5
5
5
5
5
5
5
5
5
5
5
5
5
5
5
5
5
5
5
5
5
5
5
5
5
5
5
5
5
5
5
5
5
5
5
5
5
5
5
5
5
5
5
5
5
5
5
5
5
5
5
5
5
5
5
5
5
5
5
5
5
5
5
5
5
5
5
5
5
5
5
5
5
5
5
5
5
5
5
5
5
5
5
5
5
5
5
5
5
5
5
5
5
5
5
5
5
5
5
5
5
5
5
5
5
5
5
5
5
5
5
5
5
5
5
5
5
5
5
5
5
5
5
5
5
5
5
5
5
5
5
5
5
5
5
5
5
5
5
5
5
5
5
5
5
5
5
5
5
5
5
5
5
5
5
5
5
5
5
5
5
5
5
5
5
5
5
5
5
5
5
5
5
5
5
5
5
5
5
5
5
5
5
5
5
5
5
5
5
5
5
5
5
5
5
5
5
5
5
5
5
5
5
5
5
5
5
5
5
5
5
5
5
5
5
5
5
5
5
5
5
5
5
5
5
5
5
5
5
5
5
5
5
5
5
5
5
5
5
5
5
5
5
5
5
5
5
5
5
5
5
5
5
5
5
5
5
5
5
5
5
5
5
5
5
5
5
5
5
5
5
5
5
5
5
5
5
5
5
5
5
5
5
5
5
5
5
5
5
5
5
5
5
5
5
5
5
5
5
5
5
5
5
5
5
5
5
5
5
5
5
5
5
5
5
5
5
5
5
5
5
5
5
5
5
5
5
5
5
5
5
5
5
5
5
5
5
5
5
5
5
5
5
5
5
5
5
5
5
5
5
5
5
5
5
5
5
5
5
5
5
5
5
5
5
5
5
5
5
5
5
5
5
5
5
5
5
5
5
5
5
5
5
5
5
5
5
5
5
5
5
5
5
5
5
5
5
5
5
5
5
5
5
5
5
5
5
5
5
5
5
5
5
5
5
5
5
5
5
5
5
5
5
5
5
5
5
5
5
5
5
5
5
5
5
5
5
5
5
5
5
5
5
5
5
5
5
5
5
5
5
5
5
5
5
5
5
5
5
5
5
5
5
5
5
5
5
5
5
5
5
5
5
5
5
5
5
5
5
5
5
5
5
5
5
5
5
5
5
5
5
5
5
5
5
5
5
5
5
5
5
5
5
5
5
5
5
5
5
5
5
5
5
5
5
5
5
5
5
5
5
5
5
5
5
5
5
5
5
5
5
5
5
5
5
5
5
5
5
5
5
5
5
5
5
5
5
5
5
5
5
5
5
5
5
5
5
5
5
5
5
5
5
5
5
5
5
5
5
5
5
5
5
5
5
5
5
5
5
5
5
5
5
5
5
5
5
5
5
5
5
5
5
5
5
5
5
5
5
5
5
5
5
5
5
5
5
5
5
5
5
5
5
5
5
5
5
5
5
5
5
5
5
5
5
5
5
5
5
5
5
5
5
5
5
5
5
5
5
5
5
5
5
5
5
5
5
5
5
5
5
5
5
5
5
5
5
5
5
5
5
5
5
5
5
5
5
5
5
5
5
5
5
5
5
5
5
5
5
5
5
5
5
5
5
5
5
5
5
5
5
5
5
5
5
5
5
5
5
5
5
5
5
5
5
5
5
5
5
5
5
5
5
5
5
5
5
5
5
5
5
5
5
5
5
5
5
5
5
5
5
5
5
5
5
5
5
5
5
5
5
5
5
5
5
5
5
5
5
5
5
5
5
5
5
5
5
5
5
5
5
5
5
5
5
5
5
5
5
5
5
5
5
5
5
5
5
5
5
5
5
5
5
5
5
5
5
5
5
5
5
5
5
5
5
5
5
5
5
5
5
5
5
5
5
5
5
5
5
5
5
5
5
5
5
5
5
5
5
5
5
5
5
5
5
5
5
5
5
5
5
5
5
5
5
5
5
5
5
5
5
5
5
5
5
5
5
5
5
5
5
5
5
5
5
5
5
5
5
5
5
5
5
5
5
5
5
5
5
5
5
5
5
5
5
5
5
5
5
5
5
5
5
5
5
5
5
5
5
5
5
5
5
5
5
5
5
5
5
5
5
5
5
5
5
5
5
5
5
5
5
5
5
5
5
5
5
5
5
5
5
5
5
5
5
5
5
5
5
5
5
5
5
5
5
5
5
5
5
5
5
5
5
5
5
5
5
5
5
5
5
5
5
5
5
5
5
5
5
5
5
5
5
5
5
5
5
5
5
5
5
5
5
5
5
5
5
5
5
5
5
5
5
5
5
5
5
5
5
5
5
5
5
5
5
5
5
5
5
5
5
5
5
5
5
5
5
5
5
5
5
5
5
5
5
5
5
5
5
5
5
5
5
5
5
5
5
5
5
5
5
5
5
5
5
5
5
5
5
5
5
5
5
5
5
5
5
5
5
5
5
5
5
5
5
5
5
5
5
5
5
5
5
5
5
5
5
5
5
5
5
5
5
5
5
5
5
5
5
5
5
5
5
5
5
5
5
5
5
5
5
5
5
5
5
5
5
5
5
5
5
5
5
5
5
5
5
5
5
5
5
5
5
5
5
5
5
5
5
5
5
5
5
5
5
5
5
5
5
5
5
5
5
5
5
5
5
5
5
5
5
5
5
5
5
5
5
5
5
5
5
5
5
5
5
5
5
5
5
5
5
5
5
5
5
5
5
5
5
5
5
5
5
5
5
5
5
5
5
5
5
5
5
5
5
5
5
5
5
5
5
5
5
5
5
5
5
5
5
5
5
5
5
5
5
5
5
5
5
5
5
5
5
5
5
5
5
5
5
5
5
5
5
5
5
5
5
5
5
5
5
5
5
5
5
5
5
5
5
5
5
5
5
5
5
5
5
5
5
5
5
5
5
5
5
5
5
5
5
5
5
5
5
5
5
5
5
5
5
5
5
5
5
5
5
5
5
5
5
5
5
5
5
5
5
5
5
5
5
5
5
5
5
5
5
5
5
5
5
5
5
5
5
5
5
5
5
5
5
5
5
5
5
5
5
5
5
5
5
5
5
5
5
5
5
5
5
5
5
5
5
5
5
5
5
5
5
5
5
5
5
5
5
5
5
5
5
5
5
5
5
5
5
5
5
5
5
5
5
5
5
5
5
5
5
5
5
5
5
5
5
5
5
5
5
5
5
5
5
5
5
5
5
5
5
5
5
5
5
5
5
5
5
5
5
5
5
5
5
5
5
5
5
5
5
5
5
5
5
5
5
5
5
5
5
5
5
5
5
5
5
5
5
5
5
5
5
5
5
5
5
5
5
5
5
5
5
5
5
5
5
5
5
5
5
5
5
5
5
5
5
5
5
5
5
5
5
5
5
5
5
5
5
5
5
5
5
5
5
5
5
5
5
5
5
5
5
5
5
5
5
5
5
5
5
5
5
5
5
5
5
5
5
5
5
5
5
5
5
5
5
5
5
5
5
5
5
5
5
5
5
5
5
5
5
5
5
5
5
5
5
5
5
5
5
5
5
5
5
5
5
5
5
5
5
5
5
5
5
5
5
5
5
5
5
5
5
5
5
5
5
5
5
5
5
5
5
5
5
5
5
5
5
5
5
5
5
5
5
5
5
5
5
5
5
5
5
5
5
5
5
5
5
5
5
5
5
5
5
5
5
5
5
5
5
5
5
5
5
5
5
5
5
5
5
5
5
5
5
5
5
5
5
5
5
5
5
5
5
5
5
5
5
5
5
5
5
5
5
5
5
5
5
5
5
5
5
5
5
5
5
5
5
5
5
5
5
5
5
5
5
5
5
5
5
5
5
5
5
5
5
5
5
5
5
5
5
5
5
5
5
5
5
5
5
5
5
5
5
5
5
5
5
5
5
5
5
5
5
5
5
5
5
5
5
5
5
5
5
5
5
5
5
5
5
5
5
5
5
5
5
5
5
5
5
5
5
5
5
5
5
5
5
5
5
5
5
5
5
5
5
5
5
5
5
5
5
5
5
5
5
5
5
5
5
5
5
5
5
5
5
5
5
5
5
POINT_DATA	4840
VECTORS	displacement	float
0.000000e+00	0.000000e+00	0.000000e+00
0.000000e+00	0.000000e+00	0.000000e+00
0.000000e+00	0.000000e+00	0.000000e+00
0.000000e+00	0.000000e+00	0.000000e+00
0.000000e+00	0.000000e+00	0.000000e+00
0.000000e+00	0.000000e+00	0.000000e+00
0.000000e+00	0.000000e+00	0.000000e+00
0.000000e+00	0.000000e+00	0.000000e+00
0.000000e+00	0.000000e+00	0.000000e+00
0.000000e+00	0.000000e+00	0.000000e+00
0.000000e+00	0.000000e+00	0.000000e+00
0.000000e+00	0.000000e+00	0.000000e+00
0.000000e+00	0.000000e+00	0.000000e+00
0.000000e+00	0.000000e+00	0.000000e+00
0.000000e+00	0.000000e+00	0.000000e+00
0.000000e+00	0.000000e+00	0.000000e+00
0.000000e+00	0.000000e+00	0.000000e+00
0.000000e+00	0.000000e+00	0.000000e+00
0.000000e+00	0.000000e+00	0.000000e+00
0.000000e+00	0.000000e+00	0.000000e+00
0.000000e+00	0.000000e+00	0.000000e+00
0.000000e+00	0.000000e+00	0.000000e+00
0.000000e+00	0.000000e+00	0.000000e+00
0.000000e+00	0.000000e+00	0.000000e+00
0.000000e+00	0.000000e+00	0.000000e+00
0.000000e+00	0.000000e+00	0.000000e+00
0.000000e+00	0.000000e+00	0.000000e+00
0.000000e+00	0.000000e+00	0.000000e+00
0.000000e+00	0.000000e+00	0.000000e+00
0.000000e+00	0.000000e+00	0.000000e+00
0.000000e+00	0.000000e+00	0.000000e+00
0.000000e+00	0.000000e+00	0.000000e+00
0.000000e+00	0.000000e+00	0.000000e+00
0.000000e+00	0.000000e+00	0.000000e+00
0.000000e+00	0.000000e+00	0.000000e+00
0.000000e+00	0.000000e+00	0.000000e+00
0.000000e+00	0.000000e+00	0.000000e+00
0.000000e+00	0.000000e+00	0.000000e+00
0.000000e+00	0.000000e+00	0.000000e+00
0.000000e+00	0.000000e+00	0.000000e+00
0.000000e+00	0.000000e+00	0.000000e+00
0.000000e+00	0.000000e+00	0.000000e+00
0.000000e+00	0.000000e+00	0.000000e+00
0.000000e+00	0.000000e+00	0.000000e+00
0.000000e+00	0.000000e+00	0.000000e+00
0.000000e+00	0.000000e+00	0.000000e+00
0.000000e+00	0.000000e+00	0.000000e+00
0.000000e+00	0.000000e+00	0.000000e+00
0.000000e+00	0.000000e+00	0.000000e+00
0.000000e+00	0.000000e+00	0.000000e+00
0.000000e+00	0.000000e+00	0.000000e+00
0.000000e+00	0.000000e+00	0.000000e+00
0.000000e+00	0.000000e+00	0.000000e+00
0.000000e+00	0.000000e+00	0.000000e+00
0.000000e+00	0.000000e+00	0.000000e+00
0.000000e+00	0.000000e+00	0.000000e+00
0.000000e+00	0.000000e+00	0.000000e+00
0.000000e+00	0.000000e+00	0.000000e+00
0.000000e+00	0.000000e+00	0.000000e+00
0.000000e+00	0.000000e+00	0.000000e+00
0.000000e+00	0.000000e+00	0.000000e+00
0.000000e+00	0.000000e+00	0.000000e+00
0.000000e+00	0.000000e+00	0.000000e+00
0.000000e+00	0.000000e+00	0.000000e+00
0.000000e+00	0.000000e+00	0.000000e+00
0.000000e+00	0.000000e+00	0.000000e+00
0.000000e+00	0.000000e+00	0.000000e+00
0.000000e+00	0.000000e+00	0.000000e+00
0.000000e+00	0.000000e+00	0.000000e+00
0.000000e+00	0.000000e+00	0.000000e+00
0.000000e+00	0.000000e+00	0.000000e+00
0.000000e+00	0.000000e+00	0.000000e+00
0.000000e+00	0.000000e+00	0.000000e+00
0.000000e+00	0.000000e+00	0.000000e+00
0.000000e+00	0.000000e+00	0.000000e+00
0.000000e+00	0.000000e+00	0.000000e+00
0.000000e+00	0.000000e+00	0.000000e+00
0.000000e+00	0.000000e+00	0.000000e+00
0.000000e+00	0.000000e+00	0.000000e+00
0.000000e+00	0.000000e+00	0.000000e+00
0.000000e+00	0.000000e+00	0.000000e+00
0.000000e+00	0.000000e+00	0.000000e+00
0.000000e+00	0.000000e+00	0.000000e+00
0.000000e+00	0.000000e+00	0.000000e+00
0.000000e+00	0.000000e+00	0.000000e+00
0.000000e+00	0.000000e+00	0.000000e+00
0.000000e+00	0.000000e+00	0.000000e+00
0.000000e+00	0.000000e+00	0.000000e+00
0.000000e+00	0.000000e+00	0.000000e+00
0.000000e+00	0.000000e+00	0.000000e+00
0.000000e+00	0.000000e+00	0.000000e+00
0.000000e+00	0.000000e+00	0.000000e+00
0.000000e+00	0.000000e+00	0.000000e+00
0.000000e+00	0.000000e+00	0.000000e+00
0.000000e+00	0.000000e+00	0.000000e+00
0.000000e+00	0.000000e+00	0.000000e+00
0.000000e+00	0.000000e+00	0.000000e+00
0.000000e+00	0.000000e+00	0.000000e+00
0.000000e+00	0.000000e+00	0.000000e+00
0.000000e+00	0.000000e+00	0.000000e+00
0.000000e+00	0.000000e+00	0.000000e+00
0.000000e+00	0.000000e+00	0.000000e+00
0.000000e+00	0.000000e+00	0.000000e+00
0.000000e+00	0.000000e+00	0.000000e+00
0.000000e+00	0.000000e+00	0.000000e+00
0.000000e+00	0.000000e+00	0.000000e+00
0.000000e+00	0.000000e+00	0.000000e+00
0.000000e+00	0.000000e+00	0.000000e+00
0.000000e+00	0.000000e+00	0.000000e+00
0.000000e+00	0.000000e+00	0.000000e+00
0.000000e+00	0.000000e+00	0.000000e+00
0.000000e+00	0.000000e+00	0.000000e+00
0.000000e+00	0.000000e+00	0.000000e+00
0.000000e+00	0.000000e+00	0.000000e+00
0.000000e+00	0.000000e+00	0.000000e+00
0.000000e+00	0.000000e+00	0.000000e+00
0.000000e+00	0.000000e+00	0.000000e+00
0.000000e+00	0.000000e+00	0.000000e+00
0.000000e+00	0.000000e+00	0.000000e+00
0.000000e+00	0.000000e+00	0.000000e+00
0.000000e+00	0.000000e+00	0.000000e+00
0.000000e+00	0.000000e+00	0.000000e+00
0.000000e+00	0.000000e+00	0.000000e+00
0.000000e+00	0.000000e+00	0.000000e+00
0.000000e+00	0.000000e+00	0.000000e+00
0.000000e+00	0.000000e+00	0.000000e+00
0.000000e+00	0.000000e+00	0.000000e+00
0.000000e+00	0.000000e+00	0.000000e+00
0.000000e+00	0.000000e+00	0.000000e+00
0.000000e+00	0.000000e+00	0.000000e+00
0.000000e+00	0.000000e+00	0.000000e+00
0.000000e+00	0.000000e+00	0.000000e+00
0.000000e+00	0.000000e+00	0.000000e+00
0.000000e+00	0.000000e+00	0.000000e+00
0.000000e+00	0.000000e+00	0.000000e+00
0.000000e+00	0.000000e+00	0.000000e+00
0.000000e+00	0.000000e+00	0.000000e+00
0.000000e+00	0.000000e+00	0.000000e+00
0.000000e+00	0.000000e+00	0.000000e+00
0.000000e+00	0.000000e+00	0.000000e+00
0.000000e+00	0.000000e+00	0.000000e+00
0.000000e+00	0.000000e+00	0.000000e+00
0.000000e+00	0.000000e+00	0.000000e+00
0.000000e+00	0.000000e+00	0.000000e+00
0.000000e+00	0.000000e+00	0.000000e+00
0.000000e+00	0.000000e+00	0.000000e+00
0.000000e+00	0.000000e+00	0.000000e+00
0.000000e+00	0.000000e+00	0.000000e+00
0.000000e+00	0.000000e+00	0.000000e+00
0.000000e+00	0.000000e+00	0.000000e+00
0.000000e+00	0.000000e+00	0.000000e+00
0.000000e+00	0.000000e+00	0.000000e+00
0.000000e+00	0.000000e+00	0.000000e+00
0.000000e+00	0.000000e+00	0.000000e+00
0.000000e+00	0.000000e+00	0.000000e+00
0.000000e+00	0.000000e+00	0.000000e+00
0.000000e+00	0.000000e+00	0.000000e+00
0.000000e+00	0.000000e+00	0.000000e+00
0.000000e+00	0.000000e+00	0.000000e+00
0.000000e+00	0.000000e+00	0.000000e+00
0.000000e+00	0.000000e+00	0.000000e+00
0.000000e+00	0.000000e+00	0.000000e+00
0.000000e+00	0.000000e+00	0.000000e+00
0.000000e+00	0.000000e+00	0.000000e+00
0.000000e+00	0.000000e+00	0.000000e+00
0.000000e+00	0.000000e+00	0.000000e+00
0.000000e+00	0.000000e+00	0.000000e+00
0.000000e+00	0.000000e+00	0.000000e+00
0.000000e+00	0.000000e+00	0.000000e+00
0.000000e+00	0.000000e+00	0.000000e+00
0.000000e+00	0.000000e+00	0.000000e+00
0.000000e+00	0.000000e+00	0.000000e+00
0.000000e+00	0.000000e+00	0.000000e+00
0.000000e+00	0.000000e+00	0.000000e+00
0.000000e+00	0.000000e+00	0.000000e+00
0.000000e+00	0.000000e+00	0.000000e+00
0.000000e+00	0.000000e+00	0.000000e+00
0.000000e+00	0.000000e+00	0.000000e+00
0.000000e+00	0.000000e+00	0.000000e+00
0.000000e+00	0.000000e+00	0.000000e+00
0.000000e+00	0.000000e+00	0.000000e+00
0.000000e+00	0.000000e+00	0.000000e+00
0.000000e+00	0.000000e+00	0.000000e+00
0.000000e+00	0.000000e+00	0.000000e+00
0.000000e+00	0.000000e+00	0.000000e+00
0.000000e+00	0.000000e+00	0.000000e+00
0.000000e+00	0.000000e+00	0.000000e+00
0.000000e+00	0.000000e+00	0.000000e+00
0.000000e+00	0.000000e+00	0.000000e+00
0.000000e+00	0.000000e+00	0.000000e+00
0.000000e+00	0.000000e+00	0.000000e+00
0.000000e+00	0.000000e+00	0.000000e+00
0.000000e+00	0.000000e+00	0.000000e+00
0.000000e+00	0.000000e+00	0.000000e+00
0.000000e+00	0.000000e+00	0.000000e+00
0.000000e+00	0.000000e+00	0.000000e+00
0.000000e+00	0.000000e+00	0.000000e+00
0.000000e+00	0.000000e+00	0.000000e+00
0.000000e+00	0.000000e+00	0.000000e+00
0.000000e+00	0.000000e+00	0.000000e+00
0.000000e+00	0.000000e+00	0.000000e+00
0.000000e+00	0.000000e+00	0.000000e+00
0.000000e+00	0.000000e+00	0.000000e+00
0.000000e+00	0.000000e+00	0.000000e+00
0.000000e+00	0.000000e+00	0.000000e+00
0.000000e+00	0.000000e+00	0.000000e+00
0.000000e+00	0.000000e+00	0.000000e+00
0.000000e+00	0.000000e+00	0.000000e+00
0.000000e+00	0.000000e+00	0.000000e+00
0.000000e+00	0.000000e+00	0.000000e+00
0.000000e+00	0.000000e+00	0.000000e+00
0.000000e+00	0.000000e+00	0.000000e+00
0.000000e+00	0.000000e+00	0.000000e+00
0.000000e+00	0.000000e+00	0.000000e+00
0.000000e+00	0.000000e+00	0.000000e+00
0.000000e+00	0.000000e+00	0.000000e+00
0.000000e+00	0.000000e+00	0.000000e+00
0.000000e+00	0.000000e+00	0.000000e+00
0.000000e+00	0.000000e+00	0.000000e+00
0.000000e+00	0.000000e+00	0.000000e+00
0.000000e+00	0.000000e+00	0.000000e+00
0.000000e+00	0.000000e+00	0.000000e+00
0.000000e+00	0.000000e+00	0.000000e+00
0.000000e+00	0.000000e+00	0.000000e+00
0.000000e+00	0.000000e+00	0.000000e+00
0.000000e+00	0.000000e+00	0.000000e+00
0.000000e+00	0.000000e+00	0.000000e+00
0.000000e+00	0.000000e+00	0.000000e+00
0.000000e+00	0.000000e+00	0.000000e+00
0.000000e+00	0.000000e+00	0.000000e+00
0.000000e+00	0.000000e+00	0.000000e+00
0.000000e+00	0.000000e+00	0.000000e+00
0.000000e+00	0.000000e+00	0.000000e+00
0.000000e+00	0.000000e+00	0.000000e+00
0.000000e+00	0.000000e+00	0.000000e+00
0.000000e+00	0.000000e+00	0.000000e+00
0.000000e+00	0.000000e+00	0.000000e+00
0.000000e+00	0.000000e+00	0.000000e+00
0.000000e+00	0.000000e+00	0.000000e+00
0.000000e+00	0.000000e+00	0.000000e+00
0.000000e+00	0.000000e+00	0.000000e+00
0.000000e+00	0.000000e+00	0.000000e+00
0.000000e+00	0.000000e+00	0.000000e+00
0.000000e+00	0.000000e+00	0.000000e+00
0.000000e+00	0.000000e+00	0.000000e+00
0.000000e+00	0.000000e+00	0.000000e+00
0.000000e+00	0.000000e+00	0.000000e+00
0.000000e+00	0.000000e+00	0.000000e+00
0.000000e+00	0.000000e+00	0.000000e+00
0.000000e+00	0.000000e+00	0.000000e+00
0.000000e+00	0.000000e+00	0.000000e+00
0.000000e+00	0.000000e+00	0.000000e+00
0.000000e+00	0.000000e+00	0.000000e+00
0.000000e+00	0.000000e+00	0.000000e+00
0.000000e+00	0.000000e+00	0.000000e+00
0.000000e+00	0.000000e+00	0.000000e+00
0.000000e+00	0.000000e+00	0.000000e+00
0.000000e+00	0.000000e+00	0.000000e+00
0.000000e+00	0.000000e+00	0.000000e+00
0.000000e+00	0.000000e+00	0.000000e+00
0.000000e+00	0.000000e+00	0.000000e+00
0.000000e+00	0.000000e+00	0.000000e+00
0.000000e+00	0.000000e+00	0.000000e+00
0.000000e+00	0.000000e+00	0.000000e+00
0.000000e+00	0.000000e+00	0.000000e+00
0.000000e+00	0.000000e+00	0.000000e+00
0.000000e+00	0.000000e+00	0.000000e+00
0.000000e+00	0.000000e+00	0.000000e+00
0.000000e+00	0.000000e+00	0.000000e+00
0.000000e+00	0.000000e+00	0.000000e+00
0.000000e+00	0.000000e+00	0.000000e+00
0.000000e+00	0.000000e+00	0.000000e+00
0.000000e+00	0.000000e+00	0.000000e+00
0.000000e+00	0.000000e+00	0.000000e+00
0.000000e+00	0.000000e+00	0.000000e+00
0.000000e+00	0.000000e+00	0.000000e+00
0.000000e+00	0.000000e+00	0.000000e+00
0.000000e+00	0.000000e+00	0.000000e+00
0.000000e+00	0.000000e+00	0.000000e+00
0.000000e+00	0.000000e+00	0.000000e+00
0.000000e+00	0.000000e+00	0.000000e+00
0.000000e+00	0.000000e+00	0.000000e+00
0.000000e+00	0.000000e+00	0.000000e+00
0.000000e+00	0.000000e+00	0.000000e+00
0.000000e+00	0.000000e+00	0.000000e+00
0.000000e+00	0.000000e+00	0.000000e+00
0.000000e+00	0.000000e+00	0.000000e+00
0.000000e+00	0.000000e+00	0.000000e+00
0.000000e+00	0.000000e+00	0.000000e+00
0.000000e+00	0.000000e+00	0.000000e+00
0.000000e+00	0.000000e+00	0.000000e+00
0.000000e+00	0.000000e+00	0.000000e+00
0.000000e+00	0.000000e+00	0.000000e+00
0.000000e+00	0.000000e+00	0.000000e+00
0.000000e+00	0.000000e+00	0.000000e+00
0.000000e+00	0.000000e+00	0.000000e+00
0.000000e+00	0.000000e+00	0.000000e+00
0.000000e+00	0.000000e+00	0.000000e+00
0.000000e+00	0.000000e+00	0.000000e+00
0.000000e+00	0.000000e+00	0.000000e+00
0.000000e+00	0.000000e+00	0.000000e+00
0.000000e+00	0.000000e+00	0.000000e+00
0.000000e+00	0.000000e+00	0.000000e+00
0.000000e+00	0.000000e+00	0.000000e+00
0.000000e+00	0.000000e+00	0.000000e+00
0.000000e+00	0.000000e+00	0.000000e+00
0.000000e+00	0.000000e+00	0.000000e+00
0.000000e+00	0.000000e+00	0.000000e+00
0.000000e+00	0.000000e+00	0.000000e+00
0.000000e+00	0.000000e+00	0.000000e+00
0.000000e+00	0.000000e+00	0.000000e+00
0.000000e+00	0.000000e+00	0.000000e+00
0.000000e+00	0.000000e+00	0.000000e+00
0.000000e+00	0.000000e+00	0.000000e+00
0.000000e+00	0.000000e+00	0.000000e+00
0.000000e+00	0.000000e+00	0.000000e+00
0.000000e+00	0.000000e+00	0.000000e+00
0.000000e+00	0.000000e+00	0.000000e+00
0.000000e+00	0.000000e+00	0.000000e+00
0.000000e+00	0.000000e+00	0.000000e+00
0.000000e+00	0.000000e+00	0.000000e+00
0.000000e+00	0.000000e+00	0.000000e+00
0.000000e+00	0.000000e+00	0.000000e+00
0.000000e+00	0.000000e+00	0.000000e+00
0.000000e+00	0.000000e+00	0.000000e+00
0.000000e+00	0.000000e+00	0.000000e+00
0.000000e+00	0.000000e+00	0.000000e+00
0.000000e+00	0.000000e+00	0.000000e+00
0.000000e+00	0.000000e+00	0.000000e+00
0.000000e+00	0.000000e+00	0.000000e+00
0.000000e+00	0.000000e+00	0.000000e+00
0.000000e+00	0.000000e+00	0.000000e+00
0.000000e+00	0.000000e+00	0.000000e+00
0.000000e+00	0.000000e+00	0.000000e+00
0.000000e+00	0.000000e+00	0.000000e+00
0.000000e+00	0.000000e+00	0.000000e+00
0.000000e+00	0.000000e+00	0.000000e+00
0.000000e+00	0.000000e+00	0.000000e+00
0.000000e+00	0.000000e+00	0.000000e+00
0.000000e+00	0.000000e+00	0.000000e+00
0.000000e+00	0.000000e+00	0.000000e+00
0.000000e+00	0.000000e+00	0.000000e+00
0.000000e+00	0.000000e+00	0.000000e+00
0.000000e+00	0.000000e+00	0.000000e+00
0.000000e+00	0.000000e+00	0.000000e+00
0.000000e+00	0.000000e+00	0.000000e+00
0.000000e+00	0.000000e+00	0.000000e+00
0.000000e+00	0.000000e+00	0.000000e+00
0.000000e+00	0.000000e+00	0.000000e+00
0.000000e+00	0.000000e+00	0.000000e+00
0.000000e+00	0.000000e+00	0.000000e+00
0.000000e+00	0.000000e+00	0.000000e+00
0.000000e+00	0.000000e+00	0.000000e+00
0.000000e+00	0.000000e+00	0.000000e+00
0.000000e+00	0.000000e+00	0.000000e+00
0.000000e+00	0.000000e+00	0.000000e+00
0.000000e+00	0.000000e+00	0.000000e+00
0.000000e+00	0.000000e+00	0.000000e+00
0.000000e+00	0.000000e+00	0.000000e+00
0.000000e+00	0.000000e+00	0.000000e+00
0.000000e+00	0.000000e+00	0.000000e+00
0.000000e+00	0.000000e+00	0.000000e+00
0.000000e+00	0.000000e+00	0.000000e+00
0.000000e+00	0.000000e+00	0.000000e+00
0.000000e+00	0.000000e+00	0.000000e+00
0.000000e+00	0.000000e+00	0.000000e+00
0.000000e+00	0.000000e+00	0.000000e+00
0.000000e+00	0.000000e+00	0.000000e+00
0.000000e+00	0.000000e+00	0.000000e+00
0.000000e+00	0.000000e+00	0.000000e+00
0.000000e+00	0.000000e+00	0.000000e+00
0.000000e+00	0.000000e+00	0.000000e+00
0.000000e+00	0.000000e+00	0.000000e+00
0.000000e+00	0.000000e+00	0.000000e+00
0.000000e+00	0.000000e+00	0.000000e+00
0.000000e+00	0.000000e+00	0.000000e+00
0.000000e+00	0.000000e+00	0.000000e+00
0.000000e+00	0.000000e+00	0.000000e+00
0.000000e+00	0.000000e+00	0.000000e+00
0.000000e+00	0.000000e+00	0.000000e+00
0.000000e+00	0.000000e+00	0.000000e+00
0.000000e+00	0.000000e+00	0.000000e+00
0.000000e+00	0.000000e+00	0.000000e+00
0.000000e+00	0.000000e+00	0.000000e+00
0.000000e+00	0.000000e+00	0.000000e+00
0.000000e+00	0.000000e+00	0.000000e+00
0.000000e+00	0.000000e+00	0.000000e+00
0.000000e+00	0.000000e+00	0.000000e+00
0.000000e+00	0.000000e+00	0.000000e+00
0.000000e+00	0.000000e+00	0.000000e+00
0.000000e+00	0.000000e+00	0.000000e+00
0.000000e+00	0.000000e+00	0.000000e+00
0.000000e+00	0.000000e+00	0.000000e+00
0.000000e+00	0.000000e+00	0.000000e+00
0.000000e+00	0.000000e+00	0.000000e+00
0.000000e+00	0.000000e+00	0.000000e+00
0.000000e+00	0.000000e+00	0.000000e+00
0.000000e+00	0.000000e+00	0.000000e+00
0.000000e+00	0.000000e+00	0.000000e+00
0.000000e+00	0.000000e+00	0.000000e+00
0.000000e+00	0.000000e+00	0.000000e+00
0.000000e+00	0.000000e+00	0.000000e+00
0.000000e+00	0.000000e+00	0.000000e+00
0.000000e+00	0.000000e+00	0.000000e+00
0.000000e+00	0.000000e+00	0.000000e+00
0.000000e+00	0.000000e+00	0.000000e+00
0.000000e+00	0.000000e+00	0.000000e+00
0.000000e+00	0.000000e+00	0.000000e+00
0.000000e+00	0.000000e+00	0.000000e+00
0.000000e+00	0.000000e+00	0.000000e+00
0.000000e+00	0.000000e+00	0.000000e+00
0.000000e+00	0.000000e+00	0.000000e+00
0.000000e+00	0.000000e+00	0.000000e+00
0.000000e+00	0.000000e+00	0.000000e+00
0.000000e+00	0.000000e+00	0.000000e+00
0.000000e+00	0.000000e+00	0.000000e+00
0.000000e+00	0.000000e+00	0.000000e+00
0.000000e+00	0.000000e+00	0.000000e+00
0.000000e+00	0.000000e+00	0.000000e+00
0.000000e+00	0.000000e+00	0.000000e+00
0.000000e+00	0.000000e+00	0.000000e+00
0.000000e+00	0.000000e+00	0.000000e+00
0.000000e+00	0.000000e+00	0.000000e+00
0.000000e+00	0.000000e+00	0.000000e+00
0.000000e+00	0.000000e+00	0.000000e+00
0.000000e+00	0.000000e+00	0.000000e+00
0.000000e+00	0.000000e+00	0.000000e+00
0.000000e+00	0.000000e+00	0.000000e+00
0.000000e+00	0.000000e+00	0.000000e+00
0.000000e+00	0.000000e+00	0.000000e+00
0.000000e+00	0.000000e+00	0.000000e+00
0.000000e+00	0.000000e+00	0.000000e+00
0.000000e+00	0.000000e+00	0.000000e+00
0.000000e+00	0.000000e+00	0.000000e+00
0.000000e+00	0.000000e+00	0.000000e+00
0.000000e+00	0.000000e+00	0.000000e+00
0.000000e+00	0.000000e+00	0.000000e+00
0.000000e+00	0.000000e+00	0.000000e+00
0.000000e+00	0.000000e+00	0.000000e+00
0.000000e+00	0.000000e+00	0.000000e+00
0.000000e+00	0.000000e+00	0.000000e+00
0.000000e+00	0.000000e+00	0.000000e+00
0.000000e+00	0.000000e+00	0.000000e+00
0.000000e+00	0.000000e+00	0.000000e+00
0.000000e+00	0.000000e+00	0.000000e+00
0.000000e+00	0.000000e+00	0.000000e+00
0.000000e+00	0.000000e+00	0.000000e+00
0.000000e+00	0.000000e+00	0.000000e+00
0.000000e+00	0.000000e+00	0.000000e+00
0.000000e+00	0.000000e+00	0.000000e+00
0.000000e+00	0.000000e+00	0.000000e+00
0.000000e+00	0.000000e+00	0.000000e+00
0.000000e+00	0.000000e+00	0.000000e+00
0.000000e+00	0.000000e+00	0.000000e+00
0.000000e+00	0.000000e+00	0.000000e+00
0.000000e+00	0.000000e+00	0.000000e+00
0.000000e+00	0.000000e+00	0.000000e+00
0.000000e+00	0.000000e+00	0.000000e+00
0.000000e+00	0.000000e+00	0.000000e+00
0.000000e+00	0.000000e+00	0.000000e+00
0.000000e+00	0.000000e+00	0.000000e+00
0.000000e+00	0.000000e+00	0.000000e+00
0.000000e+00	0.000000e+00	0.000000e+00
0.000000e+00	0.000000e+00	0.000000e+00
0.000000e+00	0.000000e+00	0.000000e+00
0.000000e+00	0.000000e+00	0.000000e+00
0.000000e+00	0.000000e+00	0.000000e+00
0.000000e+00	0.000000e+00	0.000000e+00
0.000000e+00	0.000000e+00	0.000000e+00
0.000000e+00	0.000000e+00	0.000000e+00
0.000000e+00	0.000000e+00	0.000000e+00
0.000000e+00	0.000000e+00	0.000000e+00
0.000000e+00	0.000000e+00	0.000000e+00
0.000000e+00	0.000000e+00	0.000000e+00
0.000000e+00	0.000000e+00	0.000000e+00
0.000000e+00	0.000000e+00	0.000000e+00
0.000000e+00	0.000000e+00	0.000000e+00
0.000000e+00	0.000000e+00	0.000000e+00
0.000000e+00	0.000000e+00	0.000000e+00
0.000000e+00	0.000000e+00	0.000000e+00
0.000000e+00	0.000000e+00	0.000000e+00
0.000000e+00	0.000000e+00	0.000000e+00
0.000000e+00	0.000000e+00	0.000000e+00
0.000000e+00	0.000000e+00	0.000000e+00
0.000000e+00	0.000000e+00	0.000000e+00
0.000000e+00	0.000000e+00	0.000000e+00
0.000000e+00	0.000000e+00	0.000000e+00
0.000000e+00	0.000000e+00	0.000000e+00
0.000000e+00	0.000000e+00	0.000000e+00
0.000000e+00	0.000000e+00	0.000000e+00
0.000000e+00	0.000000e+00	0.000000e+00
0.000000e+00	0.000000e+00	0.000000e+00
0.000000e+00	0.000000e+00	0.000000e+00
0.000000e+00	0.000000e+00	0.000000e+00
0.000000e+00	0.000000e+00	0.000000e+00
0.000000e+00	0.000000e+00	0.000000e+00
0.000000e+00	0.000000e+00	0.000000e+00
0.000000e+00	0.000000e+00	0.000000e+00
0.000000e+00	0.000000e+00	0.000000e+00
0.000000e+00	0.000000e+00	0.000000e+00
0.000000e+00	0.000000e+00	0.000000e+00
0.000000e+00	0.000000e+00	0.000000e+00
0.000000e+00	0.000000e+00	0.000000e+00
0.000000e+00	0.000000e+00	0.000000e+00
0.000000e+00	0.000000e+00	0.000000e+00
0.000000e+00	0.000000e+00	0.000000e+00
0.000000e+00	0.000000e+00	0.000000e+00
0.000000e+00	0.000000e+00	0.000000e+00
0.000000e+00	0.000000e+00	0.000000e+00
0.000000e+00	0.000000e+00	0.000000e+00
0.000000e+00	0.000000e+00	0.000000e+00
0.000000e+00	0.000000e+00	0.000000e+00
0.000000e+00	0.000000e+00	0.000000e+00
0.000000e+00	0.000000e+00	0.000000e+00
0.000000e+00	0.000000e+00	0.000000e+00
0.000000e+00	0.000000e+00	0.000000e+00
0.000000e+00	0.000000e+00	0.000000e+00
0.000000e+00	0.000000e+00	0.000000e+00
0.000000e+00	0.000000e+00	0.000000e+00
0.000000e+00	0.000000e+00	0.000000e+00
0.000000e+00	0.000000e+00	0.000000e+00
0.000000e+00	0.000000e+00	0.000000e+00
0.000000e+00	0.000000e+00	0.000000e+00
0.000000e+00	0.000000e+00	0.000000e+00
0.000000e+00	0.000000e+00	0.000000e+00
0.000000e+00	0.000000e+00	0.000000e+00
0.000000e+00	0.000000e+00	0.000000e+00
0.000000e+00	0.000000e+00	0.000000e+00
0.000000e+00	0.000000e+00	0.000000e+00
0.000000e+00	0.000000e+00	0.000000e+00
0.000000e+00	0.000000e+00	0.000000e+00
0.000000e+00	0.000000e+00	0.000000e+00
0.000000e+00	0.000000e+00	0.000000e+00
0.000000e+00	0.000000e+00	0.000000e+00
0.000000e+00	0.000000e+00	0.000000e+00
0.000000e+00	0.000000e+00	0.000000e+00
0.000000e+00	0.000000e+00	0.000000e+00
0.000000e+00	0.000000e+00	0.000000e+00
0.000000e+00	0.000000e+00	0.000000e+00
0.000000e+00	0.000000e+00	0.000000e+00
0.000000e+00	0.000000e+00	0.000000e+00
0.000000e+00	0.000000e+00	0.000000e+00
0.000000e+00	0.000000e+00	0.000000e+00
0.000000e+00	0.000000e+00	0.000000e+00
0.000000e+00	0.000000e+00	0.000000e+00
0.000000e+00	0.000000e+00	0.000000e+00
0.000000e+00	0.000000e+00	0.000000e+00
0.000000e+00	0.000000e+00	0.000000e+00
0.000000e+00	0.000000e+00	0.000000e+00
0.000000e+00	0.000000e+00	0.000000e+00
0.000000e+00	0.000000e+00	0.000000e+00
0.000000e+00	0.000000e+00	0.000000e+00
0.000000e+00	0.000000e+00	0.000000e+00
0.000000e+00	0.000000e+00	0.000000e+00
0.000000e+00	0.000000e+00	0.000000e+00
0.000000e+00	0.000000e+00	0.000000e+00
0.000000e+00	0.000000e+00	0.000000e+00
0.000000e+00	0.000000e+00	0.000000e+00
0.000000e+00	0.000000e+00	0.000000e+00
0.000000e+00	0.000000e+00	0.000000e+00
0.000000e+00	0.000000e+00	0.000000e+00
0.000000e+00	0.000000e+00	0.000000e+00
0.000000e+00	0.000000e+00	0.000000e+00
0.000000e+00	0.000000e+00	0.000000e+00
0.000000e+00	0.000000e+00	0.000000e+00
0.000000e+00	0.000000e+00	0.000000e+00
0.000000e+00	0.000000e+00	0.000000e+00
0.000000e+00	0.000000e+00	0.000000e+00
0.000000e+00	0.000000e+00	0.000000e+00
0.000000e+00	0.000000e+00	0.000000e+00
0.000000e+00	0.000000e+00	0.000000e+00
0.000000e+00	0.000000e+00	0.000000e+00
0.000000e+00	0.000000e+00	0.000000e+00
0.000000e+00	0.000000e+00	0.000000e+00
0.000000e+00	0.000000e+00	0.000000e+00
0.000000e+00	0.000000e+00	0.000000e+00
0.000000e+00	0.000000e+00	0.000000e+00
0.000000e+00	0.000000e+00	0.000000e+00
0.000000e+00	0.000000e+00	0.000000e+00
0.000000e+00	0.000000e+00	0.000000e+00
0.000000e+00	0.000000e+00	0.000000e+00
0.000000e+00	0.000000e+00	0.000000e+00
0.000000e+00	0.000000e+00	0.000000e+00
0.000000e+00	0.000000e+00	0.000000e+00
0.000000e+00	0.000000e+00	0.000000e+00
0.000000e+00	0.000000e+00	0.000000e+00
0.000000e+00	0.000000e+00	0.000000e+00
0.000000e+00	0.000000e+00	0.000000e+00
0.000000e+00	0.000000e+00	0.000000e+00
0.000000e+00	0.000000e+00	0.000000e+00
0.000000e+00	0.000000e+00	0.000000e+00
0.000000e+00	0.000000e+00	0.000000e+00
0.000000e+00	0.000000e+00	0.000000e+00
0.000000e+00	0.000000e+00	0.000000e+00
0.000000e+00	0.000000e+00	0.000000e+00
0.000000e+00	0.000000e+00	0.000000e+00
0.000000e+00	0.000000e+00	0.000000e+00
0.000000e+00	0.000000e+00	0.000000e+00
0.000000e+00	0.000000e+00	0.000000e+00
0.000000e+00	0.000000e+00	0.000000e+00
0.000000e+00	0.000000e+00	0.000000e+00
0.000000e+00	0.000000e+00	0.000000e+00
0.000000e+00	0.000000e+00	0.000000e+00
0.000000e+00	0.000000e+00	0.000000e+00
0.000000e+00	0.000000e+00	0.000000e+00
0.000000e+00	0.000000e+00	0.000000e+00
0.000000e+00	0.000000e+00	0.000000e+00
0.000000e+00	0.000000e+00	0.000000e+00
0.000000e+00	0.000000e+00	0.000000e+00
0.000000e+00	0.000000e+00	0.000000e+00
0.000000e+00	0.000000e+00	0.000000e+00
0.000000e+00	0.000000e+00	0.000000e+00
0.000000e+00	0.000000e+00	0.000000e+00
0.000000e+00	0.000000e+00	0.000000e+00
0.000000e+00	0.000000e+00	0.000000e+00
0.000000e+00	0.000000e+00	0.000000e+00
0.000000e+00	0.000000e+00	0.000000e+00
0.000000e+00	0.000000e+00	0.000000e+00
0.000000e+00	0.000000e+00	0.000000e+00
0.000000e+00	0.000000e+00	0.000000e+00
0.000000e+00	0.000000e+00	0.000000e+00
0.000000e+00	0.000000e+00	0.000000e+00
0.000000e+00	0.000000e+00	0.000000e+00
0.000000e+00	0.000000e+00	0.000000e+00
0.000000e+00	0.000000e+00	0.000000e+00
0.000000e+00	0.000000e+00	0.000000e+00
0.000000e+00	0.000000e+00	0.000000e+00
0.000000e+00	0.000000e+00	0.000000e+00
0.000000e+00	0.000000e+00	0.000000e+00
0.000000e+00	0.000000e+00	0.000000e+00
0.000000e+00	0.000000e+00	0.000000e+00
0.000000e+00	0.000000e+00	0.000000e+00
0.000000e+00	0.000000e+00	0.000000e+00
0.000000e+00	0.000000e+00	0.000000e+00
0.000000e+00	0.000000e+00	0.000000e+00
0.000000e+00	0.000000e+00	0.000000e+00
0.000000e+00	0.000000e+00	0.000000e+00
0.000000e+00	0.000000e+00	0.000000e+00
0.000000e+00	0.000000e+00	0.000000e+00
0.000000e+00	0.000000e+00	0.000000e+00
0.000000e+00	0.000000e+00	0.000000e+00
0.000000e+00	0.000000e+00	0.000000e+00
0.000000e+00	0.000000e+00	0.000000e+00
0.000000e+00	0.000000e+00	0.000000e+00
0.000000e+00	0.000000e+00	0.000000e+00
0.000000e+00	0.000000e+00	0.000000e+00
0.000000e+00	0.000000e+00	0.000000e+00
0.000000e+00	0.000000e+00	0.000000e+00
0.000000e+00	0.000000e+00	0.000000e+00
0.000000e+00	0.000000e+00	0.000000e+00
0.000000e+00	0.000000e+00	0.000000e+00
0.000000e+00	0.000000e+00	0.000000e+00
0.000000e+00	0.000000e+00	0.000000e+00
0.000000e+00	0.000000e+00	0.000000e+00
0.000000e+00	0.000000e+00	0.000000e+00
0.000000e+00	0.000000e+00	0.000000e+00
0.000000e+00	0.000000e+00	0.000000e+00
0.000000e+00	0.000000e+00	0.000000e+00
0.000000e+00	0.000000e+00	0.000000e+00
0.000000e+00	0.000000e+00	0.000000e+00
0.000000e+00	0.000000e+00	0.000000e+00
0.000000e+00	0.000000e+00	0.000000e+00
0.000000e+00	0.000000e+00	0.000000e+00
0.000000e+00	0.000000e+00	0.000000e+00
0.000000e+00	0.000000e+00	0.000000e+00
0.000000e+00	0.000000e+00	0.000000e+00
0.000000e+00	0.000000e+00	0.000000e+00
0.000000e+00	0.000000e+00	0.000000e+00
0.000000e+00	0.000000e+00	0.000000e+00
0.000000e+00	0.000000e+00	0.000000e+00
0.000000e+00	0.000000e+00	0.000000e+00
0.000000e+00	0.000000e+00	0.000000e+00
0.000000e+00	0.000000e+00	0.000000e+00
0.000000e+00	0.000000e+00	0.000000e+00
0.000000e+00	0.000000e+00	0.000000e+00
0.000000e+00	0.000000e+00	0.000000e+00
0.000000e+00	0.000000e+00	0.000000e+00
0.000000e+00	0.000000e+00	0.000000e+00
0.000000e+00	0.000000e+00	0.000000e+00
0.000000e+00	0.000000e+00	0.000000e+00
0.000000e+00	0.000000e+00	0.000000e+00
0.000000e+00	0.000000e+00	0.000000e+00
0.000000e+00	0.000000e+00	0.000000e+00
0.000000e+00	0.000000e+00	0.000000e+00
0.000000e+00	0.000000e+00	0.000000e+00
0.000000e+00	0.000000e+00	0.000000e+00
0.000000e+00	0.000000e+00	0.000000e+00
0.000000e+00	0.000000e+00	0.000000e+00
0.000000e+00	0.000000e+00	0.000000e+00
0.000000e+00	0.000000e+00	0.000000e+00
0.000000e+00	0.000000e+00	0.000000e+00
0.000000e+00	0.000000e+00	0.000000e+00
0.000000e+00	0.000000e+00	0.000000e+00
0.000000e+00	0.000000e+00	0.000000e+00
0.000000e+00	0.000000e+00	0.000000e+00
0.000000e+00	0.000000e+00	0.000000e+00
0.000000e+00	0.000000e+00	0.000000e+00
0.000000e+00	0.000000e+00	0.000000e+00
0.000000e+00	0.000000e+00	0.000000e+00
0.000000e+00	0.000000e+00	0.000000e+00
0.000000e+00	0.000000e+00	0.000000e+00
0.000000e+00	0.000000e+00	0.000000e+00
0.000000e+00	0.000000e+00	0.000000e+00
0.000000e+00	0.000000e+00	0.000000e+00
0.000000e+00	0.000000e+00	0.000000e+00
0.000000e+00	0.000000e+00	0.000000e+00
0.000000e+00	0.000000e+00	0.000000e+00
0.000000e+00	0.000000e+00	0.000000e+00
0.000000e+00	0.000000e+00	0.000000e+00
0.000000e+00	0.000000e+00	0.000000e+00
0.000000e+00	0.000000e+00	0.000000e+00
0.000000e+00	0.000000e+00	0.000000e+00
0.000000e+00	0.000000e+00	0.000000e+00
0.000000e+00	0.000000e+00	0.000000e+00
0.000000e+00	0.000000e+00	0.000000e+00
0.000000e+00	0.000000e+00	0.000000e+00
0.000000e+00	0.000000e+00	0.000000e+00
0.000000e+00	0.000000e+00	0.000000e+00
0.000000e+00	0.000000e+00	0.000000e+00
0.000000e+00	0.000000e+00	0.000000e+00
0.000000e+00	0.000000e+00	0.000000e+00
0.000000e+00	0.000000e+00	0.000000e+00
0.000000e+00	0.000000e+00	0.000000e+00
0.000000e+00	0.000000e+00	0.000000e+00
0.000000e+00	0.000000e+00	0.000000e+00
0.000000e+00	0.000000e+00	0.000000e+00
0.000000e+00	0.000000e+00	0.000000e+00
0.000000e+00	0.000000e+00	0.000000e+00
0.000000e+00	0.000000e+00	0.000000e+00
0.000000e+00	0.000000e+00	0.000000e+00
0.000000e+00	0.000000e+00	0.000000e+00
0.000000e+00	0.000000e+00	0.000000e+00
0.000000e+00	0.000000e+00	0.000000e+00
0.000000e+00	0.000000e+00	0.000000e+00
0.000000e+00	0.000000e+00	0.000000e+00
0.000000e+00	0.000000e+00	0.000000e+00
0.000000e+00	0.000000e+00	0.000000e+00
0.000000e+00	0.000000e+00	0.000000e+00
0.000000e+00	0.000000e+00	0.000000e+00
0.000000e+00	0.000000e+00	0.000000e+00
0.000000e+00	0.000000e+00	0.000000e+00
0.000000e+00	0.000000e+00	0.000000e+00
0.000000e+00	0.000000e+00	0.000000e+00
0.000000e+00	0.000000e+00	0.000000e+00
0.000000e+00	0.000000e+00	0.000000e+00
0.000000e+00	0.000000e+00	0.000000e+00
0.000000e+00	0.000000e+00	0.000000e+00
0.000000e+00	0.000000e+00	0.000000e+00
0.000000e+00	0.000000e+00	0.000000e+00
0.000000e+00	0.000000e+00	0.000000e+00
0.000000e+00	0.000000e+00	0.000000e+00
0.000000e+00	0.000000e+00	0.000000e+00
0.000000e+00	0.000000e+00	0.000000e+00
0.000000e+00	0.000000e+00	0.000000e+00
0.000000e+00	0.000000e+00	0.000000e+00
0.000000e+00	0.000000e+00	0.000000e+00
0.000000e+00	0.000000e+00	0.000000e+00
0.000000e+00	0.000000e+00	0.000000e+00
0.000000e+00	0.000000e+00	0.000000e+00
0.000000e+00	0.000000e+00	0.000000e+00
0.000000e+00	0.000000e+00	0.000000e+00
0.000000e+00	0.000000e+00	0.000000e+00
0.000000e+00	0.000000e+00	0.000000e+00
0.000000e+00	0.000000e+00	0.000000e+00
0.000000e+00	0.000000e+00	0.000000e+00
0.000000e+00	0.000000e+00	0.000000e+00
0.000000e+00	0.000000e+00	0.000000e+00
0.000000e+00	0.000000e+00	0.000000e+00
0.000000e+00	0.000000e+00	0.000000e+00
0.000000e+00	0.000000e+00	0.000000e+00
0.000000e+00	0.000000e+00	0.000000e+00
0.000000e+00	0.000000e+00	0.000000e+00
0.000000e+00	0.000000e+00	0.000000e+00
0.000000e+00	0.000000e+00	0.000000e+00
0.000000e+00	0.000000e+00	0.000000e+00
0.000000e+00	0.000000e+00	0.000000e+00
0.000000e+00	0.000000e+00	0.000000e+00
0.000000e+00	0.000000e+00	0.000000e+00
0.000000e+00	0.000000e+00	0.000000e+00
0.000000e+00	0.000000e+00	0.000000e+00
0.000000e+00	0.000000e+00	0.000000e+00
0.000000e+00	0.000000e+00	0.000000e+00
0.000000e+00	0.000000e+00	0.000000e+00
0.000000e+00	0.000000e+00	0.000000e+00
0.000000e+00	0.000000e+00	0.000000e+00
0.000000e+00	0.000000e+00	0.000000e+00
0.000000e+00	0.000000e+00	0.000000e+00
0.000000e+00	0.000000e+00	0.000000e+00
0.000000e+00	0.000000e+00	0.000000e+00
0.000000e+00	0.000000e+00	0.000000e+00
0.000000e+00	0.000000e+00	0.000000e+00
0.000000e+00	0.000000e+00	0.000000e+00
0.000000e+00	0.000000e+00	0.000000e+00
0.000000e+00	0.000000e+00	0.000000e+00
0.000000e+00	0.000000e+00	0.000000e+00
0.000000e+00	0.000000e+00	0.000000e+00
0.000000e+00	0.000000e+00	0.000000e+00
0.000000e+00	0.000000e+00	0.000000e+00
0.000000e+00	0.000000e+00	0.000000e+00
0.000000e+00	0.000000e+00	0.000000e+00
0.000000e+00	0.000000e+00	0.000000e+00
0.000000e+00	0.000000e+00	0.000000e+00
0.000000e+00	0.000000e+00	0.000000e+00
0.000000e+00	0.000000e+00	0.000000e+00
0.000000e+00	0.000000e+00	0.000000e+00
0.000000e+00	0.000000e+00	0.000000e+00
0.000000e+00	0.000000e+00	0.000000e+00
0.000000e+00	0.000000e+00	0.000000e+00
0.000000e+00	0.000000e+00	0.000000e+00
0.000000e+00	0.000000e+00	0.000000e+00
0.000000e+00	0.000000e+00	0.000000e+00
0.000000e+00	0.000000e+00	0.000000e+00
0.000000e+00	0.000000e+00	0.000000e+00
0.000000e+00	0.000000e+00	0.000000e+00
0.000000e+00	0.000000e+00	0.000000e+00
0.000000e+00	0.000000e+00	0.000000e+00
0.000000e+00	0.000000e+00	0.000000e+00
0.000000e+00	0.000000e+00	0.000000e+00
0.000000e+00	0.000000e+00	0.000000e+00
0.000000e+00	0.000000e+00	0.000000e+00
0.000000e+00	0.000000e+00	0.000000e+00
0.000000e+00	0.000000e+00	0.000000e+00
0.000000e+00	0.000000e+00	0.000000e+00
0.000000e+00	0.000000e+00	0.000000e+00
0.000000e+00	0.000000e+00	0.000000e+00
0.000000e+00	0.000000e+00	0.000000e+00
0.000000e+00	0.000000e+00	0.000000e+00
0.000000e+00	0.000000e+00	0.000000e+00
0.000000e+00	0.000000e+00	0.000000e+00
0.000000e+00	0.000000e+00	0.000000e+00
0.000000e+00	0.000000e+00	0.000000e+00
0.000000e+00	0.000000e+00	0.000000e+00
0.000000e+00	0.000000e+00	0.000000e+00
0.000000e+00	0.000000e+00	0.000000e+00
0.000000e+00	0.000000e+00	0.000000e+00
0.000000e+00	0.000000e+00	0.000000e+00
0.000000e+00	0.000000e+00	0.000000e+00
0.000000e+00	0.000000e+00	0.000000e+00
0.000000e+00	0.000000e+00	0.000000e+00
0.000000e+00	0.000000e+00	0.000000e+00
0.000000e+00	0.000000e+00	0.000000e+00
0.000000e+00	0.000000e+00	0.000000e+00
0.000000e+00	0.000000e+00	0.000000e+00
0.000000e+00	0.000000e+00	0.000000e+00
0.000000e+00	0.000000e+00	0.000000e+00
0.000000e+00	0.000000e+00	0.000000e+00
0.000000e+00	0.000000e+00	0.000000e+00
0.000000e+00	0.000000e+00	0.000000e+00
0.000000e+00	0.000000e+00	0.000000e+00
0.000000e+00	0.000000e+00	0.000000e+00
0.000000e+00	0.000000e+00	0.000000e+00
0.000000e+00	0.000000e+00	0.000000e+00
0.000000e+00	0.000000e+00	0.000000e+00
0.000000e+00	0.000000e+00	0.000000e+00
0.000000e+00	0.000000e+00	0.000000e+00
0.000000e+00	0.000000e+00	0.000000e+00
0.000000e+00	0.000000e+00	0.000000e+00
0.000000e+00	0.000000e+00	0.000000e+00
0.000000e+00	0.000000e+00	0.000000e+00
0.000000e+00	0.000000e+00	0.000000e+00
0.000000e+00	0.000000e+00	0.000000e+00
0.000000e+00	0.000000e+00	0.000000e+00
0.000000e+00	0.000000e+00	0.000000e+00
0.000000e+00	0.000000e+00	0.000000e+00
0.000000e+00	0.000000e+00	0.000000e+00
0.000000e+00	0.000000e+00	0.000000e+00
0.000000e+00	0.000000e+00	0.000000e+00
0.000000e+00	0.000000e+00	0.000000e+00
0.000000e+00	0.000000e+00	0.000000e+00
0.000000e+00	0.000000e+00	0.000000e+00
0.000000e+00	0.000000e+00	0.000000e+00
0.000000e+00	0.000000e+00	0.000000e+00
0.000000e+00	0.000000e+00	0.000000e+00
0.000000e+00	0.000000e+00	0.000000e+00
0.000000e+00	0.000000e+00	0.000000e+00
0.000000e+00	0.000000e+00	0.000000e+00
0.000000e+00	0.000000e+00	0.000000e+00
0.000000e+00	0.000000e+00	0.000000e+00
0.000000e+00	0.000000e+00	0.000000e+00
0.000000e+00	0.000000e+00	0.000000e+00
0.000000e+00	0.000000e+00	0.000000e+00
0.000000e+00	0.000000e+00	0.000000e+00
0.000000e+00	0.000000e+00	0.000000e+00
0.000000e+00	0.000000e+00	0.000000e+00
0.000000e+00	0.000000e+00	0.000000e+00
0.000000e+00	0.000000e+00	0.000000e+00
0.000000e+00	0.000000e+00	0.000000e+00
0.000000e+00	0.000000e+00	0.000000e+00
0.000000e+00	0.000000e+00	0.000000e+00
0.000000e+00	0.000000e+00	0.000000e+00
0.000000e+00	0.000000e+00	0.000000e+00
0.000000e+00	0.000000e+00	0.000000e+00
0.000000e+00	0.000000e+00	0.000000e+00
0.000000e+00	0.000000e+00	0.000000e+00
0.000000e+00	0.000000e+00	0.000000e+00
0.000000e+00	0.000000e+00	0.000000e+00
0.000000e+00	0.000000e+00	0.000000e+00
0.000000e+00	0.000000e+00	0.000000e+00
0.000000e+00	0.000000e+00	0.000000e+00
0.000000e+00	0.000000e+00	0.000000e+00
0.000000e+00	0.000000e+00	0.000000e+00
0.000000e+00	0.000000e+00	0.000000e+00
0.000000e+00	0.000000e+00	0.000000e+00
0.000000e+00	0.000000e+00	0.000000e+00
0.000000e+00	0.000000e+00	0.000000e+00
0.000000e+00	0.000000e+00	0.000000e+00
0.000000e+00	0.000000e+00	0.000000e+00
0.000000e+00	0.000000e+00	0.000000e+00
0.000000e+00	0.000000e+00	0.000000e+00
0.000000e+00	0.000000e+00	0.000000e+00
0.000000e+00	0.000000e+00	0.000000e+00
0.000000e+00	0.000000e+00	0.000000e+00
0.000000e+00	0.000000e+00	0.000000e+00
0.000000e+00	0.000000e+00	0.000000e+00
0.000000e+00	0.000000e+00	0.000000e+00
0.000000e+00	0.000000e+00	0.000000e+00
0.000000e+00	0.000000e+00	0.000000e+00
0.000000e+00	0.000000e+00	0.000000e+00
0.000000e+00	0.000000e+00	0.000000e+00
0.000000e+00	0.000000e+00	0.000000e+00
0.000000e+00	0.000000e+00	0.000000e+00
0.000000e+00	0.000000e+00	0.000000e+00
0.000000e+00	0.000000e+00	0.000000e+00
0.000000e+00	0.000000e+00	0.000000e+00
0.000000e+00	0.000000e+00	0.000000e+00
0.000000e+00	0.000000e+00	0.000000e+00
0.000000e+00	0.000000e+00	0.000000e+00
0.000000e+00	0.000000e+00	0.000000e+00
0.000000e+00	0.000000e+00	0.000000e+00
0.000000e+00	0.000000e+00	0.000000e+00
0.000000e+00	0.000000e+00	0.000000e+00
0.000000e+00	0.000000e+00	0.000000e+00
0.000000e+00	0.000000e+00	0.000000e+00
0.000000e+00	0.000000e+00	0.000000e+00
0.000000e+00	0.000000e+00	0.000000e+00
0.000000e+00	0.000000e+00	0.000000e+00
0.000000e+00	0.000000e+00	0.000000e+00
0.000000e+00	0.000000e+00	0.000000e+00
0.000000e+00	0.000000e+00	0.000000e+00
0.000000e+00	0.000000e+00	0.000000e+00
0.000000e+00	0.000000e+00	0.000000e+00
0.000000e+00	0.000000e+00	0.000000e+00
0.000000e+00	0.000000e+00	0.000000e+00
0.000000e+00	0.000000e+00	0.000000e+00
0.000000e+00	0.000000e+00	0.000000e+00
0.000000e+00	0.000000e+00	0.000000e+00
0.000000e+00	0.000000e+00	0.000000e+00
0.000000e+00	0.000000e+00	0.000000e+00
0.000000e+00	0.000000e+00	0.000000e+00
0.000000e+00	0.000000e+00	0.000000e+00
0.000000e+00	0.000000e+00	0.000000e+00
0.000000e+00	0.000000e+00	0.000000e+00
0.000000e+00	0.000000e+00	0.000000e+00
0.000000e+00	0.000000e+00	0.000000e+00
0.000000e+00	0.000000e+00	0.000000e+00
0.000000e+00	0.000000e+00	0.000000e+00
0.000000e+00	0.000000e+00	0.000000e+00
0.000000e+00	0.000000e+00	0.000000e+00
0.000000e+00	0.000000e+00	0.000000e+00
0.000000e+00	0.000000e+00	0.000000e+00
0.000000e+00	0.000000e+00	0.000000e+00
0.000000e+00	0.000000e+00	0.000000e+00
0.000000e+00	0.000000e+00	0.000000e+00
0.000000e+00	0.000000e+00	0.000000e+00
0.000000e+00	0.000000e+00	0.000000e+00
0.000000e+00	0.000000e+00	0.000000e+00
0.000000e+00	0.000000e+00	0.000000e+00
0.000000e+00	0.000000e+00	0.000000e+00
0.000000e+00	0.000000e+00	0.000000e+00
0.000000e+00	0.000000e+00	0.000000e+00
0.000000e+00	0.000000e+00	0.000000e+00
0.000000e+00	0.000000e+00	0.000000e+00
0.000000e+00	0.000000e+00	0.000000e+00
0.000000e+00	0.000000e+00	0.000000e+00
0.000000e+00	0.000000e+00	0.000000e+00
0.000000e+00	0.000000e+00	0.000000e+00
0.000000e+00	0.000000e+00	0.000000e+00
0.000000e+00	0.000000e+00	0.000000e+00
0.000000e+00	0.000000e+00	0.000000e+00
0.000000e+00	0.000000e+00	0.000000e+00
0.000000e+00	0.000000e+00	0.000000e+00
0.000000e+00	0.000000e+00	0.000000e+00
0.000000e+00	0.000000e+00	0.000000e+00
0.000000e+00	0.000000e+00	0.000000e+00
0.000000e+00	0.000000e+00	0.000000e+00
0.000000e+00	0.000000e+00	0.000000e+00
0.000000e+00	0.000000e+00	0.000000e+00
0.000000e+00	0.000000e+00	0.000000e+00
0.000000e+00	0.000000e+00	0.000000e+00
0.000000e+00	0.000000e+00	0.000000e+00
0.000000e+00	0.000000e+00	0.000000e+00
0.000000e+00	0.000000e+00	0.000000e+00
0.000000e+00	0.000000e+00	0.000000e+00
0.000000e+00	0.000000e+00	0.000000e+00
0.000000e+00	0.000000e+00	0.000000e+00
0.000000e+00	0.000000e+00	0.000000e+00
0.000000e+00	0.000000e+00	0.000000e+00
0.000000e+00	0.000000e+00	0.000000e+00
0.000000e+00	0.000000e+00	0.000000e+00
0.000000e+00	0.000000e+00	0.000000e+00
0.000000e+00	0.000000e+00	0.000000e+00
0.000000e+00	0.000000e+00	0.000000e+00
0.000000e+00	0.000000e+00	0.000000e+00
0.000000e+00	0.000000e+00	0.000000e+00
0.000000e+00	0.000000e+00	0.000000e+00
0.000000e+00	0.000000e+00	0.000000e+00
0.000000e+00	0.000000e+00	0.000000e+00
0.000000e+00	0.000000e+00	0.000000e+00
0.000000e+00	0.000000e+00	0.000000e+00
0.000000e+00	0.000000e+00	0.000000e+00
0.000000e+00	0.000000e+00	0.000000e+00
0.000000e+00	0.000000e+00	0.000000e+00
0.000000e+00	0.000000e+00	0.000000e+00
0.000000e+00	0.000000e+00	0.000000e+00
0.000000e+00	0.000000e+00	0.000000e+00
0.000000e+00	0.000000e+00	0.000000e+00
0.000000e+00	0.000000e+00	0.000000e+00
0.000000e+00	0.000000e+00	0.000000e+00
0.000000e+00	0.000000e+00	0.000000e+00
0.000000e+00	0.000000e+00	0.000000e+00
0.000000e+00	0.000000e+00	0.000000e+00
0.000000e+00	0.000000e+00	0.000000e+00
0.000000e+00	0.000000e+00	0.000000e+00
0.000000e+00	0.000000e+00	0.000000e+00
0.000000e+00	0.000000e+00	0.000000e+00
0.000000e+00	0.000000e+00	0.000000e+00
0.000000e+00	0.000000e+00	0.000000e+00
0.000000e+00	0.000000e+00	0.000000e+00
0.000000e+00	0.000000e+00	0.000000e+00
0.000000e+00	0.000000e+00	0.000000e+00
0.000000e+00	0.000000e+00	0.000000e+00
0.000000e+00	0.000000e+00	0.000000e+00
0.000000e+00	0.000000e+00	0.000000e+00
0.000000e+00	0.000000e+00	0.000000e+00
0.000000e+00	0.000000e+00	0.000000e+00
0.000000e+00	0.000000e+00	0.000000e+00
0.000000e+00	0.000000e+00	0.000000e+00
0.000000e+00	0.000000e+00	0.000000e+00
0.000000e+00	0.000000e+00	0.000000e+00
0.000000e+00	0.000000e+00	0.000000e+00
0.000000e+00	0.000000e+00	0.000000e+00
0.000000e+00	0.000000e+00	0.000000e+00
0.000000e+00	0.000000e+00	0.000000e+00
0.000000e+00	0.000000e+00	0.000000e+00
0.000000e+00	0.000000e+00	0.000000e+00
0.000000e+00	0.000000e+00	0.000000e+00
0.000000e+00	0.000000e+00	0.000000e+00
0.000000e+00	0.000000e+00	0.000000e+00
0.000000e+00	0.000000e+00	0.000000e+00
0.000000e+00	0.000000e+00	0.000000e+00
0.000000e+00	0.000000e+00	0.000000e+00
0.000000e+00	0.000000e+00	0.000000e+00
0.000000e+00	0.000000e+00	0.000000e+00
0.000000e+00	0.000000e+00	0.000000e+00
0.000000e+00	0.000000e+00	0.000000e+00
0.000000e+00	0.000000e+00	0.000000e+00
0.000000e+00	0.000000e+00	0.000000e+00
0.000000e+00	0.000000e+00	0.000000e+00
0.000000e+00	0.000000e+00	0.000000e+00
0.000000e+00	0.000000e+00	0.000000e+00
0.000000e+00	0.000000e+00	0.000000e+00
0.000000e+00	0.000000e+00	0.000000e+00
0.000000e+00	0.000000e+00	0.000000e+00
0.000000e+00	0.000000e+00	0.000000e+00
0.000000e+00	0.000000e+00	0.000000e+00
0.000000e+00	0.000000e+00	0.000000e+00
0.000000e+00	0.000000e+00	0.000000e+00
0.000000e+00	0.000000e+00	0.000000e+00
0.000000e+00	0.000000e+00	0.000000e+00
0.000000e+00	0.000000e+00	0.000000e+00
0.000000e+00	0.000000e+00	0.000000e+00
0.000000e+00	0.000000e+00	0.000000e+00
0.000000e+00	0.000000e+00	0.000000e+00
0.000000e+00	0.000000e+00	0.000000e+00
0.000000e+00	0.000000e+00	0.000000e+00
0.000000e+00	0.000000e+00	0.000000e+00
0.000000e+00	0.000000e+00	0.000000e+00
0.000000e+00	0.000000e+00	0.000000e+00
0.000000e+00	0.000000e+00	0.000000e+00
0.000000e+00	0.000000e+00	0.000000e+00
0.000000e+00	0.000000e+00	0.000000e+00
0.000000e+00	0.000000e+00	0.000000e+00
0.000000e+00	0.000000e+00	0.000000e+00
0.000000e+00	0.000000e+00	0.000000e+00
0.000000e+00	0.000000e+00	0.000000e+00
0.000000e+00	0.000000e+00	0.000000e+00
0.000000e+00	0.000000e+00	0.000000e+00
0.000000e+00	0.000000e+00	0.000000e+00
0.000000e+00	0.000000e+00	0.000000e+00
0.000000e+00	0.000000e+00	0.000000e+00
0.000000e+00	0.000000e+00	0.000000e+00
0.000000e+00	0.000000e+00	0.000000e+00
0.000000e+00	0.000000e+00	0.000000e+00
0.000000e+00	0.000000e+00	0.000000e+00
0.000000e+00	0.000000e+00	0.000000e+00
0.000000e+00	0.000000e+00	0.000000e+00
0.000000e+00	0.000000e+00	0.000000e+00
0.000000e+00	0.000000e+00	0.000000e+00
0.000000e+00	0.000000e+00	0.000000e+00
0.000000e+00	0.000000e+00	0.000000e+00
0.000000e+00	0.000000e+00	0.000000e+00
0.000000e+00	0.000000e+00	0.000000e+00
0.000000e+00	0.000000e+00	0.000000e+00
0.000000e+00	0.000000e+00	0.000000e+00
0.000000e+00	0.000000e+00	0.000000e+00
0.000000e+00	0.000000e+00	0.000000e+00
0.000000e+00	0.000000e+00	0.000000e+00
0.000000e+00	0.000000e+00	0.000000e+00
0.000000e+00	0.000000e+00	0.000000e+00
0.000000e+00	0.000000e+00	0.000000e+00
0.000000e+00	0.000000e+00	0.000000e+00
0.000000e+00	0.000000e+00	0.000000e+00
0.000000e+00	0.000000e+00	0.000000e+00
0.000000e+00	0.000000e+00	0.000000e+00
0.000000e+00	0.000000e+00	0.000000e+00
0.000000e+00	0.000000e+00	0.000000e+00
0.000000e+00	0.000000e+00	0.000000e+00
0.000000e+00	0.000000e+00	0.000000e+00
0.000000e+00	0.000000e+00	0.000000e+00
0.000000e+00	0.000000e+00	0.000000e+00
0.000000e+00	0.000000e+00	0.000000e+00
0.000000e+00	0.000000e+00	0.000000e+00
0.000000e+00	0.000000e+00	0.000000e+00
0.000000e+00	0.000000e+00	0.000000e+00
0.000000e+00	0.000000e+00	0.000000e+00
0.000000e+00	0.000000e+00	0.000000e+00
0.000000e+00	0.000000e+00	0.000000e+00
0.000000e+00	0.000000e+00	0.000000e+00
0.000000e+00	0.000000e+00	0.000000e+00
0.000000e+00	0.000000e+00	0.000000e+00
0.000000e+00	0.000000e+00	0.000000e+00
0.000000e+00	0.000000e+00	0.000000e+00
0.000000e+00	0.000000e+00	0.000000e+00
0.000000e+00	0.000000e+00	0.000000e+00
0.000000e+00	0.000000e+00	0.000000e+00
0.000000e+00	0.000000e+00	0.000000e+00
0.000000e+00	0.000000e+00	0.000000e+00
0.000000e+00	0.000000e+00	0.000000e+00
0.000000e+00	0.000000e+00	0.000000e+00
0.000000e+00	0.000000e+00	0.000000e+00
0.000000e+00	0.000000e+00	0.000000e+00
0.000000e+00	0.000000e+00	0.000000e+00
0.000000e+00	0.000000e+00	0.000000e+00
0.000000e+00	0.000000e+00	0.000000e+00
0.000000e+00	0.000000e+00	0.000000e+00
0.000000e+00	0.000000e+00	0.000000e+00
0.000000e+00	0.000000e+00	0.000000e+00
0.000000e+00	0.000000e+00	0.000000e+00
0.000000e+00	0.000000e+00	0.000000e+00
0.000000e+00	0.000000e+00	0.000000e+00
0.000000e+00	0.000000e+00	0.000000e+00
0.000000e+00	0.000000e+00	0.000000e+00
0.000000e+00	0.000000e+00	0.000000e+00
0.000000e+00	0.000000e+00	0.000000e+00
0.000000e+00	0.000000e+00	0.000000e+00
0.000000e+00	0.000000e+00	0.000000e+00
0.000000e+00	0.000000e+00	0.000000e+00
0.000000e+00	0.000000e+00	0.000000e+00
0.000000e+00	0.000000e+00	0.000000e+00
0.000000e+00	0.000000e+00	0.000000e+00
0.000000e+00	0.000000e+00	0.000000e+00
0.000000e+00	0.000000e+00	0.000000e+00
0.000000e+00	0.000000e+00	0.000000e+00
0.000000e+00	0.000000e+00	0.000000e+00
0.000000e+00	0.000000e+00	0.000000e+00
0.000000e+00	0.000000e+00	0.000000e+00
0.000000e+00	0.000000e+00	0.000000e+00
0.000000e+00	0.000000e+00	0.000000e+00
0.000000e+00	0.000000e+00	0.000000e+00
0.000000e+00	0.000000e+00	0.000000e+00
0.000000e+00	0.000000e+00	0.000000e+00
0.000000e+00	0.000000e+00	0.000000e+00
0.000000e+00	0.000000e+00	0.000000e+00
0.000000e+00	0.000000e+00	0.000000e+00
0.000000e+00	0.000000e+00	0.000000e+00
0.000000e+00	0.000000e+00	0.000000e+00
0.000000e+00	0.000000e+00	0.000000e+00
0.000000e+00	0.000000e+00	0.000000e+00
0.000000e+00	0.000000e+00	0.000000e+00
0.000000e+00	0.000000e+00	0.000000e+00
0.000000e+00	0.000000e+00	0.000000e+00
0.000000e+00	0.000000e+00	0.000000e+00
0.000000e+00	0.000000e+00	0.000000e+00
0.000000e+00	0.000000e+00	0.000000e+00
0.000000e+00	0.000000e+00	0.000000e+00
0.000000e+00	0.000000e+00	0.000000e+00
0.000000e+00	0.000000e+00	0.000000e+00
0.000000e+00	0.000000e+00	0.000000e+00
0.000000e+00	0.000000e+00	0.000000e+00
0.000000e+00	0.000000e+00	0.000000e+00
0.000000e+00	0.000000e+00	0.000000e+00
0.000000e+00	0.000000e+00	0.000000e+00
0.000000e+00	0.000000e+00	0.000000e+00
0.000000e+00	0.000000e+00	0.000000e+00
0.000000e+00	0.000000e+00	0.000000e+00
0.000000e+00	0.000000e+00	0.000000e+00
0.000000e+00	0.000000e+00	0.000000e+00
0.000000e+00	0.000000e+00	0.000000e+00
0.000000e+00	0.000000e+00	0.000000e+00
0.000000e+00	0.000000e+00	0.000000e+00
0.000000e+00	0.000000e+00	0.000000e+00
0.000000e+00	0.000000e+00	0.000000e+00
0.000000e+00	0.000000e+00	0.000000e+00
0.000000e+00	0.000000e+00	0.000000e+00
0.000000e+00	0.000000e+00	0.000000e+00
0.000000e+00	0.000000e+00	0.000000e+00
0.000000e+00	0.000000e+00	0.000000e+00
0.000000e+00	0.000000e+00	0.000000e+00
0.000000e+00	0.000000e+00	0.000000e+00
0.000000e+00	0.000000e+00	0.000000e+00
0.000000e+00	0.000000e+00	0.000000e+00
0.000000e+00	0.000000e+00	0.000000e+00
0.000000e+00	0.000000e+00	0.000000e+00
0.000000e+00	0.000000e+00	0.000000e+00
0.000000e+00	0.000000e+00	0.000000e+00
0.000000e+00	0.000000e+00	0.000000e+00
0.000000e+00	0.000000e+00	0.000000e+00
0.000000e+00	0.000000e+00	0.000000e+00
0.000000e+00	0.000000e+00	0.000000e+00
0.000000e+00	0.000000e+00	0.000000e+00
0.000000e+00	0.000000e+00	0.000000e+00
0.000000e+00	0.000000e+00	0.000000e+00
0.000000e+00	0.000000e+00	0.000000e+00
0.000000e+00	0.000000e+00	0.000000e+00
0.000000e+00	0.000000e+00	0.000000e+00
0.000000e+00	0.000000e+00	0.000000e+00
0.000000e+00	0.000000e+00	0.000000e+00
0.000000e+00	0.000000e+00	0.000000e+00
0.000000e+00	0.000000e+00	0.000000e+00
0.000000e+00	0.000000e+00	0.000000e+00
0.000000e+00	0.000000e+00	0.000000e+00
0.000000e+00	0.000000e+00	0.000000e+00
0.000000e+00	0.000000e+00	0.000000e+00
0.000000e+00	0.000000e+00	0.000000e+00
0.000000e+00	0.000000e+00	0.000000e+00
0.000000e+00	0.000000e+00	0.000000e+00
0.000000e+00	0.000000e+00	0.000000e+00
0.000000e+00	0.000000e+00	0.000000e+00
0.000000e+00	0.000000e+00	0.000000e+00
0.000000e+00	0.000000e+00	0.000000e+00
0.000000e+00	0.000000e+00	0.000000e+00
0.000000e+00	0.000000e+00	0.000000e+00
0.000000e+00	0.000000e+00	0.000000e+00
0.000000e+00	0.000000e+00	0.000000e+00
0.000000e+00	0.000000e+00	0.000000e+00
0.000000e+00	0.000000e+00	0.000000e+00
0.000000e+00	0.000000e+00	0.000000e+00
0.000000e+00	0.000000e+00	0.000000e+00
0.000000e+00	0.000000e+00	0.000000e+00
0.000000e+00	0.000000e+00	0.000000e+00
0.000000e+00	0.000000e+00	0.000000e+00
0.000000e+00	0.000000e+00	0.000000e+00
0.000000e+00	0.000000e+00	0.000000e+00
0.000000e+00	0.000000e+00	0.000000e+00
0.000000e+00	0.000000e+00	0.000000e+00
0.000000e+00	0.000000e+00	0.000000e+00
0.000000e+00	0.000000e+00	0.000000e+00
0.000000e+00	0.000000e+00	0.000000e+00
0.000000e+00	0.000000e+00	0.000000e+00
0.000000e+00	0.000000e+00	0.000000e+00
0.000000e+00	0.000000e+00	0.000000e+00
0.000000e+00	0.000000e+00	0.000000e+00
0.000000e+00	0.000000e+00	0.000000e+00
0.000000e+00	0.000000e+00	0.000000e+00
0.000000e+00	0.000000e+00	0.000000e+00
0.000000e+00	0.000000e+00	0.000000e+00
0.000000e+00	0.000000e+00	0.000000e+00
0.000000e+00	0.000000e+00	0.000000e+00
0.000000e+00	0.000000e+00	0.000000e+00
0.000000e+00	0.000000e+00	0.000000e+00
0.000000e+00	0.000000e+00	0.000000e+00
0.000000e+00	0.000000e+00	0.000000e+00
0.000000e+00	0.000000e+00	0.000000e+00
0.000000e+00	0.000000e+00	0.000000e+00
0.000000e+00	0.000000e+00	0.000000e+00
0.000000e+00	0.000000e+00	0.000000e+00
0.000000e+00	0.000000e+00	0.000000e+00
0.000000e+00	0.000000e+00	0.000000e+00
0.000000e+00	0.000000e+00	0.000000e+00
0.000000e+00	0.000000e+00	0.000000e+00
0.000000e+00	0.000000e+00	0.000000e+00
0.000000e+00	0.000000e+00	0.000000e+00
0.000000e+00	0.000000e+00	0.000000e+00
0.000000e+00	0.000000e+00	0.000000e+00
0.000000e+00	0.000000e+00	0.000000e+00
0.000000e+00	0.000000e+00	0.000000e+00
0.000000e+00	0.000000e+00	0.000000e+00
0.000000e+00	0.000000e+00	0.000000e+00
0.000000e+00	0.000000e+00	0.000000e+00
0.000000e+00	0.000000e+00	0.000000e+00
0.000000e+00	0.000000e+00	0.000000e+00
0.000000e+00	0.000000e+00	0.000000e+00
0.000000e+00	0.000000e+00	0.000000e+00
0.000000e+00	0.000000e+00	0.000000e+00
0.000000e+00	0.000000e+00	0.000000e+00
0.000000e+00	0.000000e+00	0.000000e+00
0.000000e+00	0.000000e+00	0.000000e+00
0.000000e+00	0.000000e+00	0.000000e+00
0.000000e+00	0.000000e+00	0.000000e+00
0.000000e+00	0.000000e+00	0.000000e+00
0.000000e+00	0.000000e+00	0.000000e+00
0.000000e+00	0.000000e+00	0.000000e+00
0.000000e+00	0.000000e+00	0.000000e+00
0.000000e+00	0.000000e+00	0.000000e+00
0.000000e+00	0.000000e+00	0.000000e+00
0.000000e+00	0.000000e+00	0.000000e+00
0.000000e+00	0.000000e+00	0.000000e+00
0.000000e+00	0.000000e+00	0.000000e+00
0.000000e+00	0.000000e+00	0.000000e+00
0.000000e+00	0.000000e+00	0.000000e+00
0.000000e+00	0.000000e+00	0.000000e+00
0.000000e+00	0.000000e+00	0.000000e+00
0.000000e+00	0.000000e+00	0.000000e+00
0.000000e+00	0.000000e+00	0.000000e+00
0.000000e+00	0.000000e+00	0.000000e+00
0.000000e+00	0.000000e+00	0.000000e+00
0.000000e+00	0.000000e+00	0.000000e+00
0.000000e+00	0.000000e+00	0.000000e+00
0.000000e+00	0.000000e+00	0.000000e+00
0.000000e+00	0.000000e+00	0.000000e+00
0.000000e+00	0.000000e+00	0.000000e+00
0.000000e+00	0.000000e+00	0.000000e+00
0.000000e+00	0.000000e+00	0.000000e+00
0.000000e+00	0.000000e+00	0.000000e+00
0.000000e+00	0.000000e+00	0.000000e+00
0.000000e+00	0.000000e+00	0.000000e+00
0.000000e+00	0.000000e+00	0.000000e+00
0.000000e+00	0.000000e+00	0.000000e+00
0.000000e+00	0.000000e+00	0.000000e+00
0.000000e+00	0.000000e+00	0.000000e+00
0.000000e+00	0.000000e+00	0.000000e+00
0.000000e+00	0.000000e+00	0.000000e+00
0.000000e+00	0.000000e+00	0.000000e+00
0.000000e+00	0.000000e+00	0.000000e+00
0.000000e+00	0.000000e+00	0.000000e+00
0.000000e+00	0.000000e+00	0.000000e+00
0.000000e+00	0.000000e+00	0.000000e+00
0.000000e+00	0.000000e+00	0.000000e+00
0.000000e+00	0.000000e+00	0.000000e+00
0.000000e+00	0.000000e+00	0.000000e+00
0.000000e+00	0.000000e+00	0.000000e+00
0.000000e+00	0.000000e+00	0.000000e+00
0.000000e+00	0.000000e+00	0.000000e+00
0.000000e+00	0.000000e+00	0.000000e+00
0.000000e+00	0.000000e+00	0.000000e+00
0.000000e+00	0.000000e+00	0.000000e+00
0.000000e+00	0.000000e+00	0.000000e+00
0.000000e+00	0.000000e+00	0.000000e+00
0.000000e+00	0.000000e+00	0.000000e+00
0.000000e+00	0.000000e+00	0.000000e+00
0.000000e+00	0.000000e+00	0.000000e+00
0.000000e+00	0.000000e+00	0.000000e+00
0.000000e+00	0.000000e+00	0.000000e+00
0.000000e+00	0.000000e+00	0.000000e+00
0.000000e+00	0.000000e+00	0.000000e+00
0.000000e+00	0.000000e+00	0.000000e+00
0.000000e+00	0.000000e+00	0.000000e+00
0.000000e+00	0.000000e+00	0.000000e+00
0.000000e+00	0.000000e+00	0.000000e+00
0.000000e+00	0.000000e+00	0.000000e+00
0.000000e+00	0.000000e+00	0.000000e+00
0.000000e+00	0.000000e+00	0.000000e+00
0.000000e+00	0.000000e+00	0.000000e+00
0.000000e+00	0.000000e+00	0.000000e+00
0.000000e+00	0.000000e+00	0.000000e+00
0.000000e+00	0.000000e+00	0.000000e+00
0.000000e+00	0.000000e+00	0.000000e+00
0.000000e+00	0.000000e+00	0.000000e+00
0.000000e+00	0.000000e+00	0.000000e+00
0.000000e+00	0.000000e+00	0.000000e+00
0.000000e+00	0.000000e+00	0.000000e+00
0.000000e+00	0.000000e+00	0.000000e+00
0.000000e+00	0.000000e+00	0.000000e+00
0.000000e+00	0.000000e+00	0.000000e+00
0.000000e+00	0.000000e+00	0.000000e+00
0.000000e+00	0.000000e+00	0.000000e+00
0.000000e+00	0.000000e+00	0.000000e+00
0.000000e+00	0.000000e+00	0.000000e+00
0.000000e+00	0.000000e+00	0.000000e+00
0.000000e+00	0.000000e+00	0.000000e+00
0.000000e+00	0.000000e+00	0.000000e+00
0.000000e+00	0.000000e+00	0.000000e+00
0.000000e+00	0.000000e+00	0.000000e+00
0.000000e+00	0.000000e+00	0.000000e+00
0.000000e+00	0.000000e+00	0.000000e+00
0.000000e+00	0.000000e+00	0.000000e+00
0.000000e+00	0.000000e+00	0.000000e+00
0.000000e+00	0.000000e+00	0.000000e+00
0.000000e+00	0.000000e+00	0.000000e+00
0.000000e+00	0.000000e+00	0.000000e+00
0.000000e+00	0.000000e+00	0.000000e+00
0.000000e+00	0.000000e+00	0.000000e+00
0.000000e+00	0.000000e+00	0.000000e+00
0.000000e+00	0.000000e+00	0.000000e+00
0.000000e+00	0.000000e+00	0.000000e+00
0.000000e+00	0.000000e+00	0.000000e+00
0.000000e+00	0.000000e+00	0.000000e+00
0.000000e+00	0.000000e+00	0.000000e+00
0.000000e+00	0.000000e+00	0.000000e+00
0.000000e+00	0.000000e+00	0.000000e+00
0.000000e+00	0.000000e+00	0.000000e+00
0.000000e+00	0.000000e+00	0.000000e+00
0.000000e+00	0.000000e+00	0.000000e+00
0.000000e+00	0.000000e+00	0.000000e+00
0.000000e+00	0.000000e+00	0.000000e+00
0.000000e+00	0.000000e+00	0.000000e+00
0.000000e+00	0.000000e+00	0.000000e+00
0.000000e+00	0.000000e+00	0.000000e+00
0.000000e+00	0.000000e+00	0.000000e+00
0.000000e+00	0.000000e+00	0.000000e+00
0.000000e+00	0.000000e+00	0.000000e+00
0.000000e+00	0.000000e+00	0.000000e+00
0.000000e+00	0.000000e+00	0.000000e+00
0.000000e+00	0.000000e+00	0.000000e+00
0.000000e+00	0.000000e+00	0.000000e+00
0.000000e+00	0.000000e+00	0.000000e+00
0.000000e+00	0.000000e+00	0.000000e+00
0.000000e+00	0.000000e+00	0.000000e+00
0.000000e+00	0.000000e+00	0.000000e+00
0.000000e+00	0.000000e+00	0.000000e+00
0.000000e+00	0.000000e+00	0.000000e+00
0.000000e+00	0.000000e+00	0.000000e+00
0.000000e+00	0.000000e+00	0.000000e+00
0.000000e+00	0.000000e+00	0.000000e+00
0.000000e+00	0.000000e+00	0.000000e+00
0.000000e+00	0.000000e+00	0.000000e+00
0.000000e+00	0.000000e+00	0.000000e+00
0.000000e+00	0.000000e+00	0.000000e+00
0.000000e+00	0.000000e+00	0.000000e+00
0.000000e+00	0.000000e+00	0.000000e+00
0.000000e+00	0.000000e+00	0.000000e+00
0.000000e+00	0.000000e+00	0.000000e+00
0.000000e+00	0.000000e+00	0.000000e+00
0.000000e+00	0.000000e+00	0.000000e+00
0.000000e+00	0.000000e+00	0.000000e+00
0.000000e+00	0.000000e+00	0.000000e+00
0.000000e+00	0.000000e+00	0.000000e+00
0.000000e+00	0.000000e+00	0.000000e+00
0.000000e+00	0.000000e+00	0.000000e+00
0.000000e+00	0.000000e+00	0.000000e+00
0.000000e+00	0.000000e+00	0.000000e+00
0.000000e+00	0.000000e+00	0.000000e+00
0.000000e+00	0.000000e+00	0.000000e+00
0.000000e+00	0.000000e+00	0.000000e+00
0.000000e+00	0.000000e+00	0.000000e+00
0.000000e+00	0.000000e+00	0.000000e+00
0.000000e+00	0.000000e+00	0.000000e+00
0.000000e+00	0.000000e+00	0.000000e+00
0.000000e+00	0.000000e+00	0.000000e+00
0.000000e+00	0.000000e+00	0.000000e+00
0.000000e+00	0.000000e+00	0.000000e+00
0.000000e+00	0.000000e+00	0.000000e+00
0.000000e+00	0.000000e+00	0.000000e+00
0.000000e+00	0.000000e+00	0.000000e+00
0.000000e+00	0.000000e+00	0.000000e+00
0.000000e+00	0.000000e+00	0.000000e+00
0.000000e+00	0.000000e+00	0.000000e+00
0.000000e+00	0.000000e+00	0.000000e+00
0.000000e+00	0.000000e+00	0.000000e+00
0.000000e+00	0.000000e+00	0.000000e+00
0.000000e+00	0.000000e+00	0.000000e+00
0.000000e+00	0.000000e+00	0.000000e+00
0.000000e+00	0.000000e+00	0.000000e+00
0.000000e+00	0.000000e+00	0.000000e+00
0.000000e+00	0.000000e+00	0.000000e+00
0.000000e+00	0.000000e+00	0.000000e+00
0.000000e+00	0.000000e+00	0.000000e+00
0.000000e+00	0.000000e+00	0.000000e+00
0.000000e+00	0.000000e+00	0.000000e+00
0.000000e+00	0.000000e+00	0.000000e+00
0.000000e+00	0.000000e+00	0.000000e+00
0.000000e+00	0.000000e+00	0.000000e+00
0.000000e+00	0.000000e+00	0.000000e+00
0.000000e+00	0.000000e+00	0.000000e+00
0.000000e+00	0.000000e+00	0.000000e+00
0.000000e+00	0.000000e+00	0.000000e+00
0.000000e+00	0.000000e+00	0.000000e+00
0.000000e+00	0.000000e+00	0.000000e+00
0.000000e+00	0.000000e+00	0.000000e+00
0.000000e+00	0.000000e+00	0.000000e+00
0.000000e+00	0.000000e+00	0.000000e+00
0.000000e+00	0.000000e+00	0.000000e+00
0.000000e+00	0.000000e+00	0.000000e+00
0.000000e+00	0.000000e+00	0.000000e+00
0.000000e+00	0.000000e+00	0.000000e+00
0.000000e+00	0.000000e+00	0.000000e+00
0.000000e+00	0.000000e+00	0.000000e+00
0.000000e+00	0.000000e+00	0.000000e+00
0.000000e+00	0.000000e+00	0.000000e+00
0.000000e+00	0.000000e+00	0.000000e+00
0.000000e+00	0.000000e+00	0.000000e+00
0.000000e+00	0.000000e+00	0.000000e+00
0.000000e+00	0.000000e+00	0.000000e+00
0.000000e+00	0.000000e+00	0.000000e+00
0.000000e+00	0.000000e+00	0.000000e+00
0.000000e+00	0.000000e+00	0.000000e+00
0.000000e+00	0.000000e+00	0.000000e+00
0.000000e+00	0.000000e+00	0.000000e+00
0.000000e+00	0.000000e+00	0.000000e+00
0.000000e+00	0.000000e+00	0.000000e+00
0.000000e+00	0.000000e+00	0.000000e+00
0.000000e+00	0.000000e+00	0.000000e+00
0.000000e+00	0.000000e+00	0.000000e+00
0.000000e+00	0.000000e+00	0.000000e+00
0.000000e+00	0.000000e+00	0.000000e+00
0.000000e+00	0.000000e+00	0.000000e+00
0.000000e+00	0.000000e+00	0.000000e+00
0.000000e+00	0.000000e+00	0.000000e+00
0.000000e+00	0.000000e+00	0.000000e+00
0.000000e+00	0.000000e+00	0.000000e+00
0.000000e+00	0.000000e+00	0.000000e+00
0.000000e+00	0.000000e+00	0.000000e+00
0.000000e+00	0.000000e+00	0.000000e+00
0.000000e+00	0.000000e+00	0.000000e+00
0.000000e+00	0.000000e+00	0.000000e+00
0.000000e+00	0.000000e+00	0.000000e+00
0.000000e+00	0.000000e+00	0.000000e+00
0.000000e+00	0.000000e+00	0.000000e+00
0.000000e+00	0.000000e+00	0.000000e+00
0.000000e+00	0.000000e+00	0.000000e+00
0.000000e+00	0.000000e+00	0.000000e+00
0.000000e+00	0.000000e+00	0.000000e+00
0.000000e+00	0.000000e+00	0.000000e+00
0.000000e+00	0.000000e+00	0.000000e+00
0.000000e+00	0.000000e+00	0.000000e+00
0.000000e+00	0.000000e+00	0.000000e+00
0.000000e+00	0.000000e+00	0.000000e+00
0.000000e+00	0.000000e+00	0.000000e+00
0.000000e+00	0.000000e+00	0.000000e+00
0.000000e+00	0.000000e+00	0.000000e+00
0.000000e+00	0.000000e+00	0.000000e+00
0.000000e+00	0.000000e+00	0.000000e+00
0.000000e+00	0.000000e+00	0.000000e+00
0.000000e+00	0.000000e+00	0.000000e+00
0.000000e+00	0.000000e+00	0.000000e+00
0.000000e+00	0.000000e+00	0.000000e+00
0.000000e+00	0.000000e+00	0.000000e+00
0.000000e+00	0.000000e+00	0.000000e+00
0.000000e+00	0.000000e+00	0.000000e+00
0.000000e+00	0.000000e+00	0.000000e+00
0.000000e+00	0.000000e+00	0.000000e+00
0.000000e+00	0.000000e+00	0.000000e+00
0.000000e+00	0.000000e+00	0.000000e+00
0.000000e+00	0.000000e+00	0.000000e+00
0.000000e+00	0.000000e+00	0.000000e+00
0.000000e+00	0.000000e+00	0.000000e+00
0.000000e+00	0.000000e+00	0.000000e+00
0.000000e+00	0.000000e+00	0.000000e+00
0.000000e+00	0.000000e+00	0.000000e+00
0.000000e+00	0.000000e+00	0.000000e+00
0.000000e+00	0.000000e+00	0.000000e+00
0.000000e+00	0.000000e+00	0.000000e+00
0.000000e+00	0.000000e+00	0.000000e+00
0.000000e+00	0.000000e+00	0.000000e+00
0.000000e+00	0.000000e+00	0.000000e+00
0.000000e+00	0.000000e+00	0.000000e+00
0.000000e+00	0.000000e+00	0.000000e+00
0.000000e+00	0.000000e+00	0.000000e+00
0.000000e+00	0.000000e+00	0.000000e+00
0.000000e+00	0.000000e+00	0.000000e+00
0.000000e+00	0.000000e+00	0.000000e+00
0.000000e+00	0.000000e+00	0.000000e+00
0.000000e+00	0.000000e+00	0.000000e+00
0.000000e+00	0.000000e+00	0.000000e+00
0.000000e+00	0.000000e+00	0.000000e+00
0.000000e+00	0.000000e+00	0.000000e+00
0.000000e+00	0.000000e+00	0.000000e+00
0.000000e+00	0.000000e+00	0.000000e+00
0.000000e+00	0.000000e+00	0.000000e+00
0.000000e+00	0.000000e+00	0.000000e+00
0.000000e+00	0.000000e+00	0.000000e+00
0.000000e+00	0.000000e+00	0.000000e+00
0.000000e+00	0.000000e+00	0.000000e+00
0.000000e+00	0.000000e+00	0.000000e+00
0.000000e+00	0.000000e+00	0.000000e+00
0.000000e+00	0.000000e+00	0.000000e+00
0.000000e+00	0.000000e+00	0.000000e+00
0.000000e+00	0.000000e+00	0.000000e+00
0.000000e+00	0.000000e+00	0.000000e+00
0.000000e+00	0.000000e+00	0.000000e+00
0.000000e+00	0.000000e+00	0.000000e+00
0.000000e+00	0.000000e+00	0.000000e+00
0.000000e+00	0.000000e+00	0.000000e+00
0.000000e+00	0.000000e+00	0.000000e+00
0.000000e+00	0.000000e+00	0.000000e+00
0.000000e+00	0.000000e+00	0.000000e+00
0.000000e+00	0.000000e+00	0.000000e+00
0.000000e+00	0.000000e+00	0.000000e+00
0.000000e+00	0.000000e+00	0.000000e+00
0.000000e+00	0.000000e+00	0.000000e+00
0.000000e+00	0.000000e+00	0.000000e+00
0.000000e+00	0.000000e+00	0.000000e+00
0.000000e+00	0.000000e+00	0.000000e+00
0.000000e+00	0.000000e+00	0.000000e+00
0.000000e+00	0.000000e+00	0.000000e+00
0.000000e+00	0.000000e+00	0.000000e+00
0.000000e+00	0.000000e+00	0.000000e+00
0.000000e+00	0.000000e+00	0.000000e+00
0.000000e+00	0.000000e+00	0.000000e+00
0.000000e+00	0.000000e+00	0.000000e+00
0.000000e+00	0.000000e+00	0.000000e+00
0.000000e+00	0.000000e+00	0.000000e+00
0.000000e+00	0.000000e+00	0.000000e+00
0.000000e+00	0.000000e+00	0.000000e+00
0.000000e+00	0.000000e+00	0.000000e+00
0.000000e+00	0.000000e+00	0.000000e+00
0.000000e+00	0.000000e+00	0.000000e+00
0.000000e+00	0.000000e+00	0.000000e+00
0.000000e+00	0.000000e+00	0.000000e+00
0.000000e+00	0.000000e+00	0.000000e+00
0.000000e+00	0.000000e+00	0.000000e+00
0.000000e+00	0.000000e+00	0.000000e+00
0.000000e+00	0.000000e+00	0.000000e+00
0.000000e+00	0.000000e+00	0.000000e+00
0.000000e+00	0.000000e+00	0.000000e+00
0.000000e+00	0.000000e+00	0.000000e+00
0.000000e+00	0.000000e+00	0.000000e+00
0.000000e+00	0.000000e+00	0.000000e+00
0.000000e+00	0.000000e+00	0.000000e+00
0.000000e+00	0.000000e+00	0.000000e+00
0.000000e+00	0.000000e+00	0.000000e+00
0.000000e+00	0.000000e+00	0.000000e+00
0.000000e+00	0.000000e+00	0.000000e+00
0.000000e+00	0.000000e+00	0.000000e+00
0.000000e+00	0.000000e+00	0.000000e+00
0.000000e+00	0.000000e+00	0.000000e+00
0.000000e+00	0.000000e+00	0.000000e+00
0.000000e+00	0.000000e+00	0.000000e+00
0.000000e+00	0.000000e+00	0.000000e+00
0.000000e+00	0.000000e+00	0.000000e+00
0.000000e+00	0.000000e+00	0.000000e+00
0.000000e+00	0.000000e+00	0.000000e+00
0.000000e+00	0.000000e+00	0.000000e+00
0.000000e+00	0.000000e+00	0.000000e+00
0.000000e+00	0.000000e+00	0.000000e+00
0.000000e+00	0.000000e+00	0.000000e+00
0.000000e+00	0.000000e+00	0.000000e+00
0.000000e+00	0.000000e+00	0.000000e+00
0.000000e+00	0.000000e+00	0.000000e+00
0.000000e+00	0.000000e+00	0.000000e+00
0.000000e+00	0.000000e+00	0.000000e+00
0.000000e+00	0.000000e+00	0.000000e+00
0.000000e+00	0.000000e+00	0.000000e+00
0.000000e+00	0.000000e+00	0.000000e+00
0.000000e+00	0.000000e+00	0.000000e+00
0.000000e+00	0.000000e+00	0.000000e+00
0.000000e+00	0.000000e+00	0.000000e+00
0.000000e+00	0.000000e+00	0.000000e+00
0.000000e+00	0.000000e+00	0.000000e+00
0.000000e+00	0.000000e+00	0.000000e+00
0.000000e+00	0.000000e+00	0.000000e+00
0.000000e+00	0.000000e+00	0.000000e+00
0.000000e+00	0.000000e+00	0.000000e+00
0.000000e+00	0.000000e+00	0.000000e+00
0.000000e+00	0.000000e+00	0.000000e+00
0.000000e+00	0.000000e+00	0.000000e+00
0.000000e+00	0.000000e+00	0.000000e+00
0.000000e+00	0.000000e+00	0.000000e+00
0.000000e+00	0.000000e+00	0.000000e+00
0.000000e+00	0.000000e+00	0.000000e+00
0.000000e+00	0.000000e+00	0.000000e+00
0.000000e+00	0.000000e+00	0.000000e+00
0.000000e+00	0.000000e+00	0.000000e+00
0.000000e+00	0.000000e+00	0.000000e+00
0.000000e+00	0.000000e+00	0.000000e+00
0.000000e+00	0.000000e+00	0.000000e+00
0.000000e+00	0.000000e+00	0.000000e+00
0.000000e+00	0.000000e+00	0.000000e+00
0.000000e+00	0.000000e+00	0.000000e+00
0.000000e+00	0.000000e+00	0.000000e+00
0.000000e+00	0.000000e+00	0.000000e+00
0.000000e+00	0.000000e+00	0.000000e+00
0.000000e+00	0.000000e+00	0.000000e+00
0.000000e+00	0.000000e+00	0.000000e+00
0.000000e+00	0.000000e+00	0.000000e+00
0.000000e+00	0.000000e+00	0.000000e+00
0.000000e+00	0.000000e+00	0.000000e+00
0.000000e+00	0.000000e+00	0.000000e+00
0.000000e+00	0.000000e+00	0.000000e+00
0.000000e+00	0.000000e+00	0.000000e+00
0.000000e+00	0.000000e+00	0.000000e+00
0.000000e+00	0.000000e+00	0.000000e+00
0.000000e+00	0.000000e+00	0.000000e+00
0.000000e+00	0.000000e+00	0.000000e+00
0.000000e+00	0.000000e+00	0.000000e+00
0.000000e+00	0.000000e+00	0.000000e+00
0.000000e+00	0.000000e+00	0.000000e+00
0.000000e+00	0.000000e+00	0.000000e+00
0.000000e+00	0.000000e+00	0.000000e+00
0.000000e+00	0.000000e+00	0.000000e+00
0.000000e+00	0.000000e+00	0.000000e+00
0.000000e+00	0.000000e+00	0.000000e+00
0.000000e+00	0.000000e+00	0.000000e+00
0.000000e+00	0.000000e+00	0.000000e+00
0.000000e+00	0.000000e+00	0.000000e+00
0.000000e+00	0.000000e+00	0.000000e+00
0.000000e+00	0.000000e+00	0.000000e+00
0.000000e+00	0.000000e+00	0.000000e+00
0.000000e+00	0.000000e+00	0.000000e+00
0.000000e+00	0.000000e+00	0.000000e+00
0.000000e+00	0.000000e+00	0.000000e+00
0.000000e+00	0.000000e+00	0.000000e+00
0.000000e+00	0.000000e+00	0.000000e+00
0.000000e+00	0.000000e+00	0.000000e+00
0.000000e+00	0.000000e+00	0.000000e+00
0.000000e+00	0.000000e+00	0.000000e+00
0.000000e+00	0.000000e+00	0.000000e+00
0.000000e+00	0.000000e+00	0.000000e+00
0.000000e+00	0.000000e+00	0.000000e+00
0.000000e+00	0.000000e+00	0.000000e+00
0.000000e+00	0.000000e+00	0.000000e+00
0.000000e+00	0.000000e+00	0.000000e+00
0.000000e+00	0.000000e+00	0.000000e+00
0.000000e+00	0.000000e+00	0.000000e+00
0.000000e+00	0.000000e+00	0.000000e+00
0.000000e+00	0.000000e+00	0.000000e+00
0.000000e+00	0.000000e+00	0.000000e+00
0.000000e+00	0.000000e+00	0.000000e+00
0.000000e+00	0.000000e+00	0.000000e+00
0.000000e+00	0.000000e+00	0.000000e+00
0.000000e+00	0.000000e+00	0.000000e+00
0.000000e+00	0.000000e+00	0.000000e+00
0.000000e+00	0.000000e+00	0.000000e+00
0.000000e+00	0.000000e+00	0.000000e+00
0.000000e+00	0.000000e+00	0.000000e+00
0.000000e+00	0.000000e+00	0.000000e+00
0.000000e+00	0.000000e+00	0.000000e+00
0.000000e+00	0.000000e+00	0.000000e+00
0.000000e+00	0.000000e+00	0.000000e+00
0.000000e+00	0.000000e+00	0.000000e+00
0.000000e+00	0.000000e+00	0.000000e+00
0.000000e+00	0.000000e+00	0.000000e+00
0.000000e+00	0.000000e+00	0.000000e+00
0.000000e+00	0.000000e+00	0.000000e+00
0.000000e+00	0.000000e+00	0.000000e+00
0.000000e+00	0.000000e+00	0.000000e+00
0.000000e+00	0.000000e+00	0.000000e+00
0.000000e+00	0.000000e+00	0.000000e+00
0.000000e+00	0.000000e+00	0.000000e+00
0.000000e+00	0.000000e+00	0.000000e+00
0.000000e+00	0.000000e+00	0.000000e+00
0.000000e+00	0.000000e+00	0.000000e+00
0.000000e+00	0.000000e+00	0.000000e+00
0.000000e+00	0.000000e+00	0.000000e+00
0.000000e+00	0.000000e+00	0.000000e+00
0.000000e+00	0.000000e+00	0.000000e+00
0.000000e+00	0.000000e+00	0.000000e+00
0.000000e+00	0.000000e+00	0.000000e+00
0.000000e+00	0.000000e+00	0.000000e+00
0.000000e+00	0.000000e+00	0.000000e+00
0.000000e+00	0.000000e+00	0.000000e+00
0.000000e+00	0.000000e+00	0.000000e+00
0.000000e+00	0.000000e+00	0.000000e+00
0.000000e+00	0.000000e+00	0.000000e+00
0.000000e+00	0.000000e+00	0.000000e+00
0.000000e+00	0.000000e+00	0.000000e+00
0.000000e+00	0.000000e+00	0.000000e+00
0.000000e+00	0.000000e+00	0.000000e+00
0.000000e+00	0.000000e+00	0.000000e+00
0.000000e+00	0.000000e+00	0.000000e+00
0.000000e+00	0.000000e+00	0.000000e+00
0.000000e+00	0.000000e+00	0.000000e+00
0.000000e+00	0.000000e+00	0.000000e+00
0.000000e+00	0.000000e+00	0.000000e+00
0.000000e+00	0.000000e+00	0.000000e+00
0.000000e+00	0.000000e+00	0.000000e+00
0.000000e+00	0.000000e+00	0.000000e+00
0.000000e+00	0.000000e+00	0.000000e+00
0.000000e+00	0.000000e+00	0.000000e+00
0.000000e+00	0.000000e+00	0.000000e+00
0.000000e+00	0.000000e+00	0.000000e+00
0.000000e+00	0.000000e+00	0.000000e+00
0.000000e+00	0.000000e+00	0.000000e+00
0.000000e+00	0.000000e+00	0.000000e+00
0.000000e+00	0.000000e+00	0.000000e+00
0.000000e+00	0.000000e+00	0.000000e+00
0.000000e+00	0.000000e+00	0.000000e+00
0.000000e+00	0.000000e+00	0.000000e+00
0.000000e+00	0.000000e+00	0.000000e+00
0.000000e+00	0.000000e+00	0.000000e+00
0.000000e+00	0.000000e+00	0.000000e+00
0.000000e+00	0.000000e+00	0.000000e+00
0.000000e+00	0.000000e+00	0.000000e+00
0.000000e+00	0.000000e+00	0.000000e+00
0.000000e+00	0.000000e+00	0.000000e+00
0.000000e+00	0.000000e+00	0.000000e+00
0.000000e+00	0.000000e+00	0.000000e+00
0.000000e+00	0.000000e+00	0.000000e+00
0.000000e+00	0.000000e+00	0.000000e+00
0.000000e+00	0.000000e+00	0.000000e+00
0.000000e+00	0.000000e+00	0.000000e+00
0.000000e+00	0.000000e+00	0.000000e+00
0.000000e+00	0.000000e+00	0.000000e+00
0.000000e+00	0.000000e+00	0.000000e+00
0.000000e+00	0.000000e+00	0.000000e+00
0.000000e+00	0.000000e+00	0.000000e+00
0.000000e+00	0.000000e+00	0.000000e+00
0.000000e+00	0.000000e+00	0.000000e+00
0.000000e+00	0.000000e+00	0.000000e+00
0.000000e+00	0.000000e+00	0.000000e+00
0.000000e+00	0.000000e+00	0.000000e+00
0.000000e+00	0.000000e+00	0.000000e+00
0.000000e+00	0.000000e+00	0.000000e+00
0.000000e+00	0.000000e+00	0.000000e+00
0.000000e+00	0.000000e+00	0.000000e+00
0.000000e+00	0.000000e+00	0.000000e+00
0.000000e+00	0.000000e+00	0.000000e+00
0.000000e+00	0.000000e+00	0.000000e+00
0.000000e+00	0.000000e+00	0.000000e+00
0.000000e+00	0.000000e+00	0.000000e+00
0.000000e+00	0.000000e+00	0.000000e+00
0.000000e+00	0.000000e+00	0.000000e+00
0.000000e+00	0.000000e+00	0.000000e+00
0.000000e+00	0.000000e+00	0.000000e+00
0.000000e+00	0.000000e+00	0.000000e+00
0.000000e+00	0.000000e+00	0.000000e+00
0.000000e+00	0.000000e+00	0.000000e+00
0.000000e+00	0.000000e+00	0.000000e+00
0.000000e+00	0.000000e+00	0.000000e+00
0.000000e+00	0.000000e+00	0.000000e+00
0.000000e+00	0.000000e+00	0.000000e+00
0.000000e+00	0.000000e+00	0.000000e+00
0.000000e+00	0.000000e+00	0.000000e+00
0.000000e+00	0.000000e+00	0.000000e+00
0.000000e+00	0.000000e+00	0.000000e+00
0.000000e+00	0.000000e+00	0.000000e+00
0.000000e+00	0.000000e+00	0.000000e+00
0.000000e+00	0.000000e+00	0.000000e+00
0.000000e+00	0.000000e+00	0.000000e+00
0.000000e+00	0.000000e+00	0.000000e+00
0.000000e+00	0.000000e+00	0.000000e+00
0.000000e+00	0.000000e+00	0.000000e+00
0.000000e+00	0.000000e+00	0.000000e+00
0.000000e+00	0.000000e+00	0.000000e+00
0.000000e+00	0.000000e+00	0.000000e+00
0.000000e+00	0.000000e+00	0.000000e+00
0.000000e+00	0.000000e+00	0.000000e+00
0.000000e+00	0.000000e+00	0.000000e+00
0.000000e+00	0.000000e+00	0.000000e+00
0.000000e+00	0.000000e+00	0.000000e+00
0.000000e+00	0.000000e+00	0.000000e+00
0.000000e+00	0.000000e+00	0.000000e+00
0.000000e+00	0.000000e+00	0.000000e+00
0.000000e+00	0.000000e+00	0.000000e+00
0.000000e+00	0.000000e+00	0.000000e+00
0.000000e+00	0.000000e+00	0.000000e+00
0.000000e+00	0.000000e+00	0.000000e+00
0.000000e+00	0.000000e+00	0.000000e+00
0.000000e+00	0.000000e+00	0.000000e+00
0.000000e+00	0.000000e+00	0.000000e+00
0.000000e+00	0.000000e+00	0.000000e+00
0.000000e+00	0.000000e+00	0.000000e+00
0.000000e+00	0.000000e+00	0.000000e+00
0.000000e+00	0.000000e+00	0.000000e+00
0.000000e+00	0.000000e+00	0.000000e+00
0.000000e+00	0.000000e+00	0.000000e+00
0.000000e+00	0.000000e+00	0.000000e+00
0.000000e+00	0.000000e+00	0.000000e+00
0.000000e+00	0.000000e+00	0.000000e+00
0.000000e+00	0.000000e+00	0.000000e+00
0.000000e+00	0.000000e+00	0.000000e+00
0.000000e+00	0.000000e+00	0.000000e+00
0.000000e+00	0.000000e+00	0.000000e+00
0.000000e+00	0.000000e+00	0.000000e+00
0.000000e+00	0.000000e+00	0.000000e+00
0.000000e+00	0.000000e+00	0.000000e+00
0.000000e+00	0.000000e+00	0.000000e+00
0.000000e+00	0.000000e+00	0.000000e+00
0.000000e+00	0.000000e+00	0.000000e+00
0.000000e+00	0.000000e+00	0.000000e+00
0.000000e+00	0.000000e+00	0.000000e+00
0.000000e+00	0.000000e+00	0.000000e+00
0.000000e+00	0.000000e+00	0.000000e+00
0.000000e+00	0.000000e+00	0.000000e+00
0.000000e+00	0.000000e+00	0.000000e+00
0.000000e+00	0.000000e+00	0.000000e+00
0.000000e+00	0.000000e+00	0.000000e+00
0.000000e+00	0.000000e+00	0.000000e+00
0.000000e+00	0.000000e+00	0.000000e+00
0.000000e+00	0.000000e+00	0.000000e+00
0.000000e+00	0.000000e+00	0.000000e+00
0.000000e+00	0.000000e+00	0.000000e+00
0.000000e+00	0.000000e+00	0.000000e+00
0.000000e+00	0.000000e+00	0.000000e+00
0.000000e+00	0.000000e+00	0.000000e+00
0.000000e+00	0.000000e+00	0.000000e+00
0.000000e+00	0.000000e+00	0.000000e+00
0.000000e+00	0.000000e+00	0.000000e+00
0.000000e+00	0.000000e+00	0.000000e+00
0.000000e+00	0.000000e+00	0.000000e+00
0.000000e+00	0.000000e+00	0.000000e+00
0.000000e+00	0.000000e+00	0.000000e+00
0.000000e+00	0.000000e+00	0.000000e+00
0.000000e+00	0.000000e+00	0.000000e+00
0.000000e+00	0.000000e+00	0.000000e+00
0.000000e+00	0.000000e+00	0.000000e+00
0.000000e+00	0.000000e+00	0.000000e+00
0.000000e+00	0.000000e+00	0.000000e+00
0.000000e+00	0.000000e+00	0.000000e+00
0.000000e+00	0.000000e+00	0.000000e+00
0.000000e+00	0.000000e+00	0.000000e+00
0.000000e+00	0.000000e+00	0.000000e+00
0.000000e+00	0.000000e+00	0.000000e+00
0.000000e+00	0.000000e+00	0.000000e+00
0.000000e+00	0.000000e+00	0.000000e+00
0.000000e+00	0.000000e+00	0.000000e+00
0.000000e+00	0.000000e+00	0.000000e+00
0.000000e+00	0.000000e+00	0.000000e+00
0.000000e+00	0.000000e+00	0.000000e+00
0.000000e+00	0.000000e+00	0.000000e+00
0.000000e+00	0.000000e+00	0.000000e+00
0.000000e+00	0.000000e+00	0.000000e+00
0.000000e+00	0.000000e+00	0.000000e+00
0.000000e+00	0.000000e+00	0.000000e+00
0.000000e+00	0.000000e+00	0.000000e+00
0.000000e+00	0.000000e+00	0.000000e+00
0.000000e+00	0.000000e+00	0.000000e+00
0.000000e+00	0.000000e+00	0.000000e+00
0.000000e+00	0.000000e+00	0.000000e+00
0.000000e+00	0.000000e+00	0.000000e+00
0.000000e+00	0.000000e+00	0.000000e+00
0.000000e+00	0.000000e+00	0.000000e+00
0.000000e+00	0.000000e+00	0.000000e+00
0.000000e+00	0.000000e+00	0.000000e+00
0.000000e+00	0.000000e+00	0.000000e+00
0.000000e+00	0.000000e+00	0.000000e+00
0.000000e+00	0.000000e+00	0.000000e+00
0.000000e+00	0.000000e+00	0.000000e+00
0.000000e+00	0.000000e+00	0.000000e+00
0.000000e+00	0.000000e+00	0.000000e+00
0.000000e+00	0.000000e+00	0.000000e+00
0.000000e+00	0.000000e+00	0.000000e+00
0.000000e+00	0.000000e+00	0.000000e+00
0.000000e+00	0.000000e+00	0.000000e+00
0.000000e+00	0.000000e+00	0.000000e+00
0.000000e+00	0.000000e+00	0.000000e+00
0.000000e+00	0.000000e+00	0.000000e+00
0.000000e+00	0.000000e+00	0.000000e+00
0.000000e+00	0.000000e+00	0.000000e+00
0.000000e+00	0.000000e+00	0.000000e+00
0.000000e+00	0.000000e+00	0.000000e+00
0.000000e+00	0.000000e+00	0.000000e+00
0.000000e+00	0.000000e+00	0.000000e+00
0.000000e+00	0.000000e+00	0.000000e+00
0.000000e+00	0.000000e+00	0.000000e+00
0.000000e+00	0.000000e+00	0.000000e+00
0.000000e+00	0.000000e+00	0.000000e+00
0.000000e+00	0.000000e+00	0.000000e+00
0.000000e+00	0.000000e+00	0.000000e+00
0.000000e+00	0.000000e+00	0.000000e+00
0.000000e+00	0.000000e+00	0.000000e+00
0.000000e+00	0.000000e+00	0.000000e+00
0.000000e+00	0.000000e+00	0.000000e+00
0.000000e+00	0.000000e+00	0.000000e+00
0.000000e+00	0.000000e+00	0.000000e+00
0.000000e+00	0.000000e+00	0.000000e+00
0.000000e+00	0.000000e+00	0.000000e+00
0.000000e+00	0.000000e+00	0.000000e+00
0.000000e+00	0.000000e+00	0.000000e+00
0.000000e+00	0.000000e+00	0.000000e+00
0.000000e+00	0.000000e+00	0.000000e+00
0.000000e+00	0.000000e+00	0.000000e+00
0.000000e+00	0.000000e+00	0.000000e+00
0.000000e+00	0.000000e+00	0.000000e+00
0.000000e+00	0.000000e+00	0.000000e+00
0.000000e+00	0.000000e+00	0.000000e+00
0.000000e+00	0.000000e+00	0.000000e+00
0.000000e+00	0.000000e+00	0.000000e+00
0.000000e+00	0.000000e+00	0.000000e+00
0.000000e+00	0.000000e+00	0.000000e+00
0.000000e+00	0.000000e+00	0.000000e+00
0.000000e+00	0.000000e+00	0.000000e+00
0.000000e+00	0.000000e+00	0.000000e+00
0.000000e+00	0.000000e+00	0.000000e+00
0.000000e+00	0.000000e+00	0.000000e+00
0.000000e+00	0.000000e+00	0.000000e+00
0.000000e+00	0.000000e+00	0.000000e+00
0.000000e+00	0.000000e+00	0.000000e+00
0.000000e+00	0.000000e+00	0.000000e+00
0.000000e+00	0.000000e+00	0.000000e+00
0.000000e+00	0.000000e+00	0.000000e+00
0.000000e+00	0.000000e+00	0.000000e+00
0.000000e+00	0.000000e+00	0.000000e+00
0.000000e+00	0.000000e+00	0.000000e+00
0.000000e+00	0.000000e+00	0.000000e+00
0.000000e+00	0.000000e+00	0.000000e+00
0.000000e+00	0.000000e+00	0.000000e+00
0.000000e+00	0.000000e+00	0.000000e+00
0.000000e+00	0.000000e+00	0.000000e+00
0.000000e+00	0.000000e+00	0.000000e+00
0.000000e+00	0.000000e+00	0.000000e+00
0.000000e+00	0.000000e+00	0.000000e+00
0.000000e+00	0.000000e+00	0.000000e+00
0.000000e+00	0.000000e+00	0.000000e+00
0.000000e+00	0.000000e+00	0.000000e+00
0.000000e+00	0.000000e+00	0.000000e+00
0.000000e+00	0.000000e+00	0.000000e+00
0.000000e+00	0.000000e+00	0.000000e+00
0.000000e+00	0.000000e+00	0.000000e+00
0.000000e+00	0.000000e+00	0.000000e+00
0.000000e+00	0.000000e+00	0.000000e+00
0.000000e+00	0.000000e+00	0.000000e+00
0.000000e+00	0.000000e+00	0.000000e+00
0.000000e+00	0.000000e+00	0.000000e+00
0.000000e+00	0.000000e+00	0.000000e+00
0.000000e+00	0.000000e+00	0.000000e+00
0.000000e+00	0.000000e+00	0.000000e+00
0.000000e+00	0.000000e+00	0.000000e+00
0.000000e+00	0.000000e+00	0.000000e+00
0.000000e+00	0.000000e+00	0.000000e+00
0.000000e+00	0.000000e+00	0.000000e+00
0.000000e+00	0.000000e+00	0.000000e+00
0.000000e+00	0.000000e+00	0.000000e+00
0.000000e+00	0.000000e+00	0.000000e+00
0.000000e+00	0.000000e+00	0.000000e+00
0.000000e+00	0.000000e+00	0.000000e+00
0.000000e+00	0.000000e+00	0.000000e+00
0.000000e+00	0.000000e+00	0.000000e+00
0.000000e+00	0.000000e+00	0.000000e+00
0.000000e+00	0.000000e+00	0.000000e+00
0.000000e+00	0.000000e+00	0.000000e+00
0.000000e+00	0.000000e+00	0.000000e+00
0.000000e+00	0.000000e+00	0.000000e+00
0.000000e+00	0.000000e+00	0.000000e+00
0.000000e+00	0.000000e+00	0.000000e+00
0.000000e+00	0.000000e+00	0.000000e+00
0.000000e+00	0.000000e+00	0.000000e+00
0.000000e+00	0.000000e+00	0.000000e+00
0.000000e+00	0.000000e+00	0.000000e+00
0.000000e+00	0.000000e+00	0.000000e+00
0.000000e+00	0.000000e+00	0.000000e+00
0.000000e+00	0.000000e+00	0.000000e+00
0.000000e+00	0.000000e+00	0.000000e+00
0.000000e+00	0.000000e+00	0.000000e+00
0.000000e+00	0.000000e+00	0.000000e+00
0.000000e+00	0.000000e+00	0.000000e+00
0.000000e+00	0.000000e+00	0.000000e+00
0.000000e+00	0.000000e+00	0.000000e+00
0.000000e+00	0.000000e+00	0.000000e+00
0.000000e+00	0.000000e+00	0.000000e+00
0.000000e+00	0.000000e+00	0.000000e+00
0.000000e+00	0.000000e+00	0.000000e+00
0.000000e+00	0.000000e+00	0.000000e+00
0.000000e+00	0.000000e+00	0.000000e+00
0.000000e+00	0.000000e+00	0.000000e+00
0.000000e+00	0.000000e+00	0.000000e+00
0.000000e+00	0.000000e+00	0.000000e+00
0.000000e+00	0.000000e+00	0.000000e+00
0.000000e+00	0.000000e+00	0.000000e+00
0.000000e+00	0.000000e+00	0.000000e+00
0.000000e+00	0.000000e+00	0.000000e+00
0.000000e+00	0.000000e+00	0.000000e+00
0.000000e+00	0.000000e+00	0.000000e+00
0.000000e+00	0.000000e+00	0.000000e+00
0.000000e+00	0.000000e+00	0.000000e+00
0.000000e+00	0.000000e+00	0.000000e+00
0.000000e+00	0.000000e+00	0.000000e+00
0.000000e+00	0.000000e+00	0.000000e+00
0.000000e+00	0.000000e+00	0.000000e+00
0.000000e+00	0.000000e+00	0.000000e+00
0.000000e+00	0.000000e+00	0.000000e+00
0.000000e+00	0.000000e+00	0.000000e+00
0.000000e+00	0.000000e+00	0.000000e+00
0.000000e+00	0.000000e+00	0.000000e+00
0.000000e+00	0.000000e+00	0.000000e+00
0.000000e+00	0.000000e+00	0.000000e+00
0.000000e+00	0.000000e+00	0.000000e+00
0.000000e+00	0.000000e+00	0.000000e+00
0.000000e+00	0.000000e+00	0.000000e+00
0.000000e+00	0.000000e+00	0.000000e+00
0.000000e+00	0.000000e+00	0.000000e+00
0.000000e+00	0.000000e+00	0.000000e+00
0.000000e+00	0.000000e+00	0.000000e+00
0.000000e+00	0.000000e+00	0.000000e+00
0.000000e+00	0.000000e+00	0.000000e+00
0.000000e+00	0.000000e+00	0.000000e+00
0.000000e+00	0.000000e+00	0.000000e+00
0.000000e+00	0.000000e+00	0.000000e+00
0.000000e+00	0.000000e+00	0.000000e+00
0.000000e+00	0.000000e+00	0.000000e+00
0.000000e+00	0.000000e+00	0.000000e+00
0.000000e+00	0.000000e+00	0.000000e+00
0.000000e+00	0.000000e+00	0.000000e+00
0.000000e+00	0.000000e+00	0.000000e+00
0.000000e+00	0.000000e+00	0.000000e+00
0.000000e+00	0.000000e+00	0.000000e+00
0.000000e+00	0.000000e+00	0.000000e+00
0.000000e+00	0.000000e+00	0.000000e+00
0.000000e+00	0.000000e+00	0.000000e+00
0.000000e+00	0.000000e+00	0.000000e+00
0.000000e+00	0.000000e+00	0.000000e+00
0.000000e+00	0.000000e+00	0.000000e+00
0.000000e+00	0.000000e+00	0.000000e+00
0.000000e+00	0.000000e+00	0.000000e+00
0.000000e+00	0.000000e+00	0.000000e+00
0.000000e+00	0.000000e+00	0.000000e+00
0.000000e+00	0.000000e+00	0.000000e+00
0.000000e+00	0.000000e+00	0.000000e+00
0.000000e+00	0.000000e+00	0.000000e+00
0.000000e+00	0.000000e+00	0.000000e+00
0.000000e+00	0.000000e+00	0.000000e+00
0.000000e+00	0.000000e+00	0.000000e+00
0.000000e+00	0.000000e+00	0.000000e+00
0.000000e+00	0.000000e+00	0.000000e+00
0.000000e+00	0.000000e+00	0.000000e+00
0.000000e+00	0.000000e+00	0.000000e+00
0.000000e+00	0.000000e+00	0.000000e+00
0.000000e+00	0.000000e+00	0.000000e+00
0.000000e+00	0.000000e+00	0.000000e+00
0.000000e+00	0.000000e+00	0.000000e+00
0.000000e+00	0.000000e+00	0.000000e+00
0.000000e+00	0.000000e+00	0.000000e+00
0.000000e+00	0.000000e+00	0.000000e+00
0.000000e+00	0.000000e+00	0.000000e+00
0.000000e+00	0.000000e+00	0.000000e+00
0.000000e+00	0.000000e+00	0.000000e+00
0.000000e+00	0.000000e+00	0.000000e+00
0.000000e+00	0.000000e+00	0.000000e+00
0.000000e+00	0.000000e+00	0.000000e+00
0.000000e+00	0.000000e+00	0.000000e+00
0.000000e+00	0.000000e+00	0.000000e+00
0.000000e+00	0.000000e+00	0.000000e+00
0.000000e+00	0.000000e+00	0.000000e+00
0.000000e+00	0.000000e+00	0.000000e+00
0.000000e+00	0.000000e+00	0.000000e+00
0.000000e+00	0.000000e+00	0.000000e+00
0.000000e+00	0.000000e+00	0.000000e+00
0.000000e+00	0.000000e+00	0.000000e+00
0.000000e+00	0.000000e+00	0.000000e+00
0.000000e+00	0.000000e+00	0.000000e+00
0.000000e+00	0.000000e+00	0.000000e+00
0.000000e+00	0.000000e+00	0.000000e+00
0.000000e+00	0.000000e+00	0.000000e+00
0.000000e+00	0.000000e+00	0.000000e+00
0.000000e+00	0.000000e+00	0.000000e+00
0.000000e+00	0.000000e+00	0.000000e+00
0.000000e+00	0.000000e+00	0.000000e+00
0.000000e+00	0.000000e+00	0.000000e+00
0.000000e+00	0.000000e+00	0.000000e+00
0.000000e+00	0.000000e+00	0.000000e+00
0.000000e+00	0.000000e+00	0.000000e+00
0.000000e+00	0.000000e+00	0.000000e+00
0.000000e+00	0.000000e+00	0.000000e+00
0.000000e+00	0.000000e+00	0.000000e+00
0.000000e+00	0.000000e+00	0.000000e+00
0.000000e+00	0.000000e+00	0.000000e+00
0.000000e+00	0.000000e+00	0.000000e+00
0.000000e+00	0.000000e+00	0.000000e+00
0.000000e+00	0.000000e+00	0.000000e+00
0.000000e+00	0.000000e+00	0.000000e+00
0.000000e+00	0.000000e+00	0.000000e+00
0.000000e+00	0.000000e+00	0.000000e+00
0.000000e+00	0.000000e+00	0.000000e+00
0.000000e+00	0.000000e+00	0.000000e+00
0.000000e+00	0.000000e+00	0.000000e+00
0.000000e+00	0.000000e+00	0.000000e+00
0.000000e+00	0.000000e+00	0.000000e+00
0.000000e+00	0.000000e+00	0.000000e+00
0.000000e+00	0.000000e+00	0.000000e+00
0.000000e+00	0.000000e+00	0.000000e+00
0.000000e+00	0.000000e+00	0.000000e+00
0.000000e+00	0.000000e+00	0.000000e+00
0.000000e+00	0.000000e+00	0.000000e+00
0.000000e+00	0.000000e+00	0.000000e+00
0.000000e+00	0.000000e+00	0.000000e+00
0.000000e+00	0.000000e+00	0.000000e+00
0.000000e+00	0.000000e+00	0.000000e+00
0.000000e+00	0.000000e+00	0.000000e+00
0.000000e+00	0.000000e+00	0.000000e+00
0.000000e+00	0.000000e+00	0.000000e+00
0.000000e+00	0.000000e+00	0.000000e+00
0.000000e+00	0.000000e+00	0.000000e+00
0.000000e+00	0.000000e+00	0.000000e+00
0.000000e+00	0.000000e+00	0.000000e+00
0.000000e+00	0.000000e+00	0.000000e+00
0.000000e+00	0.000000e+00	0.000000e+00
0.000000e+00	0.000000e+00	0.000000e+00
0.000000e+00	0.000000e+00	0.000000e+00
0.000000e+00	0.000000e+00	0.000000e+00
0.000000e+00	0.000000e+00	0.000000e+00
0.000000e+00	0.000000e+00	0.000000e+00
0.000000e+00	0.000000e+00	0.000000e+00
0.000000e+00	0.000000e+00	0.000000e+00
0.000000e+00	0.000000e+00	0.000000e+00
0.000000e+00	0.000000e+00	0.000000e+00
0.000000e+00	0.000000e+00	0.000000e+00
0.000000e+00	0.000000e+00	0.000000e+00
0.000000e+00	0.000000e+00	0.000000e+00
0.000000e+00	0.000000e+00	0.000000e+00
0.000000e+00	0.000000e+00	0.000000e+00
0.000000e+00	0.000000e+00	0.000000e+00
0.000000e+00	0.000000e+00	0.000000e+00
0.000000e+00	0.000000e+00	0.000000e+00
0.000000e+00	0.000000e+00	0.000000e+00
0.000000e+00	0.000000e+00	0.000000e+00
0.000000e+00	0.000000e+00	0.000000e+00
0.000000e+00	0.000000e+00	0.000000e+00
0.000000e+00	0.000000e+00	0.000000e+00
0.000000e+00	0.000000e+00	0.000000e+00
0.000000e+00	0.000000e+00	0.000000e+00
0.000000e+00	0.000000e+00	0.000000e+00
0.000000e+00	0.000000e+00	0.000000e+00
0.000000e+00	0.000000e+00	0.000000e+00
0.000000e+00	0.000000e+00	0.000000e+00
0.000000e+00	0.000000e+00	0.000000e+00
0.000000e+00	0.000000e+00	0.000000e+00
0.000000e+00	0.000000e+00	0.000000e+00
0.000000e+00	0.000000e+00	0.000000e+00
0.000000e+00	0.000000e+00	0.000000e+00
0.000000e+00	0.000000e+00	0.000000e+00
0.000000e+00	0.000000e+00	0.000000e+00
0.000000e+00	0.000000e+00	0.000000e+00
0.000000e+00	0.000000e+00	0.000000e+00
0.000000e+00	0.000000e+00	0.000000e+00
0.000000e+00	0.000000e+00	0.000000e+00
0.000000e+00	0.000000e+00	0.000000e+00
0.000000e+00	0.000000e+00	0.000000e+00
0.000000e+00	0.000000e+00	0.000000e+00
0.000000e+00	0.000000e+00	0.000000e+00
0.000000e+00	0.000000e+00	0.000000e+00
0.000000e+00	0.000000e+00	0.000000e+00
0.000000e+00	0.000000e+00	0.000000e+00
0.000000e+00	0.000000e+00	0.000000e+00
0.000000e+00	0.000000e+00	0.000000e+00
0.000000e+00	0.000000e+00	0.000000e+00
0.000000e+00	0.000000e+00	0.000000e+00
0.000000e+00	0.000000e+00	0.000000e+00
0.000000e+00	0.000000e+00	0.000000e+00
0.000000e+00	0.000000e+00	0.000000e+00
0.000000e+00	0.000000e+00	0.000000e+00
0.000000e+00	0.000000e+00	0.000000e+00
0.000000e+00	0.000000e+00	0.000000e+00
0.000000e+00	0.000000e+00	0.000000e+00
0.000000e+00	0.000000e+00	0.000000e+00
0.000000e+00	0.000000e+00	0.000000e+00
0.000000e+00	0.000000e+00	0.000000e+00
0.000000e+00	0.000000e+00	0.000000e+00
0.000000e+00	0.000000e+00	0.000000e+00
0.000000e+00	0.000000e+00	0.000000e+00
0.000000e+00	0.000000e+00	0.000000e+00
0.000000e+00	0.000000e+00	0.000000e+00
0.000000e+00	0.000000e+00	0.000000e+00
0.000000e+00	0.000000e+00	0.000000e+00
0.000000e+00	0.000000e+00	0.000000e+00
0.000000e+00	0.000000e+00	0.000000e+00
0.000000e+00	0.000000e+00	0.000000e+00
0.000000e+00	0.000000e+00	0.000000e+00
0.000000e+00	0.000000e+00	0.000000e+00
0.000000e+00	0.000000e+00	0.000000e+00
0.000000e+00	0.000000e+00	0.000000e+00
0.000000e+00	0.000000e+00	0.000000e+00
0.000000e+00	0.000000e+00	0.000000e+00
0.000000e+00	0.000000e+00	0.000000e+00
0.000000e+00	0.000000e+00	0.000000e+00
0.000000e+00	0.000000e+00	0.000000e+00
0.000000e+00	0.000000e+00	0.000000e+00
0.000000e+00	0.000000e+00	0.000000e+00
0.000000e+00	0.000000e+00	0.000000e+00
0.000000e+00	0.000000e+00	0.000000e+00
0.000000e+00	0.000000e+00	0.000000e+00
0.000000e+00	0.000000e+00	0.000000e+00
0.000000e+00	0.000000e+00	0.000000e+00
0.000000e+00	0.000000e+00	0.000000e+00
0.000000e+00	0.000000e+00	0.000000e+00
0.000000e+00	0.000000e+00	0.000000e+00
0.000000e+00	0.000000e+00	0.000000e+00
0.000000e+00	0.000000e+00	0.000000e+00
0.000000e+00	0.000000e+00	0.000000e+00
0.000000e+00	0.000000e+00	0.000000e+00
0.000000e+00	0.000000e+00	0.000000e+00
0.000000e+00	0.000000e+00	0.000000e+00
0.000000e+00	0.000000e+00	0.000000e+00
0.000000e+00	0.000000e+00	0.000000e+00
0.000000e+00	0.000000e+00	0.000000e+00
0.000000e+00	0.000000e+00	0.000000e+00
0.000000e+00	0.000000e+00	0.000000e+00
0.000000e+00	0.000000e+00	0.000000e+00
0.000000e+00	0.000000e+00	0.000000e+00
0.000000e+00	0.000000e+00	0.000000e+00
0.000000e+00	0.000000e+00	0.000000e+00
0.000000e+00	0.000000e+00	0.000000e+00
0.000000e+00	0.000000e+00	0.000000e+00
0.000000e+00	0.000000e+00	0.000000e+00
0.000000e+00	0.000000e+00	0.000000e+00
0.000000e+00	0.000000e+00	0.000000e+00
0.000000e+00	0.000000e+00	0.000000e+00
0.000000e+00	0.000000e+00	0.000000e+00
0.000000e+00	0.000000e+00	0.000000e+00
0.000000e+00	0.000000e+00	0.000000e+00
0.000000e+00	0.000000e+00	0.000000e+00
0.000000e+00	0.000000e+00	0.000000e+00
0.000000e+00	0.000000e+00	0.000000e+00
0.000000e+00	0.000000e+00	0.000000e+00
0.000000e+00	0.000000e+00	0.000000e+00
0.000000e+00	0.000000e+00	0.000000e+00
0.000000e+00	0.000000e+00	0.000000e+00
0.000000e+00	0.000000e+00	0.000000e+00
0.000000e+00	0.000000e+00	0.000000e+00
0.000000e+00	0.000000e+00	0.000000e+00
0.000000e+00	0.000000e+00	0.000000e+00
0.000000e+00	0.000000e+00	0.000000e+00
0.000000e+00	0.000000e+00	0.000000e+00
0.000000e+00	0.000000e+00	0.000000e+00
0.000000e+00	0.000000e+00	0.000000e+00
0.000000e+00	0.000000e+00	0.000000e+00
0.000000e+00	0.000000e+00	0.000000e+00
0.000000e+00	0.000000e+00	0.000000e+00
0.000000e+00	0.000000e+00	0.000000e+00
0.000000e+00	0.000000e+00	0.000000e+00
0.000000e+00	0.000000e+00	0.000000e+00
0.000000e+00	0.000000e+00	0.000000e+00
0.000000e+00	0.000000e+00	0.000000e+00
0.000000e+00	0.000000e+00	0.000000e+00
0.000000e+00	0.000000e+00	0.000000e+00
0.000000e+00	0.000000e+00	0.000000e+00
0.000000e+00	0.000000e+00	0.000000e+00
0.000000e+00	0.000000e+00	0.000000e+00
0.000000e+00	0.000000e+00	0.000000e+00
0.000000e+00	0.000000e+00	0.000000e+00
0.000000e+00	0.000000e+00	0.000000e+00
0.000000e+00	0.000000e+00	0.000000e+00
0.000000e+00	0.000000e+00	0.000000e+00
0.000000e+00	0.000000e+00	0.000000e+00
0.000000e+00	0.000000e+00	0.000000e+00
0.000000e+00	0.000000e+00	0.000000e+00
0.000000e+00	0.000000e+00	0.000000e+00
0.000000e+00	0.000000e+00	0.000000e+00
0.000000e+00	0.000000e+00	0.000000e+00
0.000000e+00	0.000000e+00	0.000000e+00
0.000000e+00	0.000000e+00	0.000000e+00
0.000000e+00	0.000000e+00	0.000000e+00
0.000000e+00	0.000000e+00	0.000000e+00
0.000000e+00	0.000000e+00	0.000000e+00
0.000000e+00	0.000000e+00	0.000000e+00
0.000000e+00	0.000000e+00	0.000000e+00
0.000000e+00	0.000000e+00	0.000000e+00
0.000000e+00	0.000000e+00	0.000000e+00
0.000000e+00	0.000000e+00	0.000000e+00
0.000000e+00	0.000000e+00	0.000000e+00
0.000000e+00	0.000000e+00	0.000000e+00
0.000000e+00	0.000000e+00	0.000000e+00
0.000000e+00	0.000000e+00	0.000000e+00
0.000000e+00	0.000000e+00	0.000000e+00
0.000000e+00	0.000000e+00	0.000000e+00
0.000000e+00	0.000000e+00	0.000000e+00
0.000000e+00	0.000000e+00	0.000000e+00
0.000000e+00	0.000000e+00	0.000000e+00
0.000000e+00	0.000000e+00	0.000000e+00
0.000000e+00	0.000000e+00	0.000000e+00
0.000000e+00	0.000000e+00	0.000000e+00
0.000000e+00	0.000000e+00	0.000000e+00
0.000000e+00	0.000000e+00	0.000000e+00
0.000000e+00	0.000000e+00	0.000000e+00
0.000000e+00	0.000000e+00	0.000000e+00
0.000000e+00	0.000000e+00	0.000000e+00
0.000000e+00	0.000000e+00	0.000000e+00
0.000000e+00	0.000000e+00	0.000000e+00
0.000000e+00	0.000000e+00	0.000000e+00
0.000000e+00	0.000000e+00	0.000000e+00
0.000000e+00	0.000000e+00	0.000000e+00
0.000000e+00	0.000000e+00	0.000000e+00
0.000000e+00	0.000000e+00	0.000000e+00
0.000000e+00	0.000000e+00	0.000000e+00
0.000000e+00	0.000000e+00	0.000000e+00
0.000000e+00	0.000000e+00	0.000000e+00
0.000000e+00	0.000000e+00	0.000000e+00
0.000000e+00	0.000000e+00	0.000000e+00
0.000000e+00	0.000000e+00	0.000000e+00
0.000000e+00	0.000000e+00	0.000000e+00
0.000000e+00	0.000000e+00	0.000000e+00
0.000000e+00	0.000000e+00	0.000000e+00
0.000000e+00	0.000000e+00	0.000000e+00
0.000000e+00	0.000000e+00	0.000000e+00
0.000000e+00	0.000000e+00	0.000000e+00
0.000000e+00	0.000000e+00	0.000000e+00
0.000000e+00	0.000000e+00	0.000000e+00
0.000000e+00	0.000000e+00	0.000000e+00
0.000000e+00	0.000000e+00	0.000000e+00
0.000000e+00	0.000000e+00	0.000000e+00
0.000000e+00	0.000000e+00	0.000000e+00
0.000000e+00	0.000000e+00	0.000000e+00
0.000000e+00	0.000000e+00	0.000000e+00
0.000000e+00	0.000000e+00	0.000000e+00
0.000000e+00	0.000000e+00	0.000000e+00
0.000000e+00	0.000000e+00	0.000000e+00
0.000000e+00	0.000000e+00	0.000000e+00
0.000000e+00	0.000000e+00	0.000000e+00
0.000000e+00	0.000000e+00	0.000000e+00
0.000000e+00	0.000000e+00	0.000000e+00
0.000000e+00	0.000000e+00	0.000000e+00
0.000000e+00	0.000000e+00	0.000000e+00
0.000000e+00	0.000000e+00	0.000000e+00
0.000000e+00	0.000000e+00	0.000000e+00
0.000000e+00	0.000000e+00	0.000000e+00
0.000000e+00	0.000000e+00	0.000000e+00
0.000000e+00	0.000000e+00	0.000000e+00
0.000000e+00	0.000000e+00	0.000000e+00
0.000000e+00	0.000000e+00	0.000000e+00
0.000000e+00	0.000000e+00	0.000000e+00
0.000000e+00	0.000000e+00	0.000000e+00
0.000000e+00	0.000000e+00	0.000000e+00
0.000000e+00	0.000000e+00	0.000000e+00
0.000000e+00	0.000000e+00	0.000000e+00
0.000000e+00	0.000000e+00	0.000000e+00
0.000000e+00	0.000000e+00	0.000000e+00
0.000000e+00	0.000000e+00	0.000000e+00
0.000000e+00	0.000000e+00	0.000000e+00
0.000000e+00	0.000000e+00	0.000000e+00
0.000000e+00	0.000000e+00	0.000000e+00
0.000000e+00	0.000000e+00	0.000000e+00
0.000000e+00	0.000000e+00	0.000000e+00
0.000000e+00	0.000000e+00	0.000000e+00
0.000000e+00	0.000000e+00	0.000000e+00
0.000000e+00	0.000000e+00	0.000000e+00
0.000000e+00	0.000000e+00	0.000000e+00
0.000000e+00	0.000000e+00	0.000000e+00
0.000000e+00	0.000000e+00	0.000000e+00
0.000000e+00	0.000000e+00	0.000000e+00
0.000000e+00	0.000000e+00	0.000000e+00
0.000000e+00	0.000000e+00	0.000000e+00
0.000000e+00	0.000000e+00	0.000000e+00
0.000000e+00	0.000000e+00	0.000000e+00
0.000000e+00	0.000000e+00	0.000000e+00
0.000000e+00	0.000000e+00	0.000000e+00
0.000000e+00	0.000000e+00	0.000000e+00
0.000000e+00	0.000000e+00	0.000000e+00
0.000000e+00	0.000000e+00	0.000000e+00
0.000000e+00	0.000000e+00	0.000000e+00
0.000000e+00	0.000000e+00	0.000000e+00
0.000000e+00	0.000000e+00	0.000000e+00
0.000000e+00	0.000000e+00	0.000000e+00
0.000000e+00	0.000000e+00	0.000000e+00
0.000000e+00	0.000000e+00	0.000000e+00
0.000000e+00	0.000000e+00	0.000000e+00
0.000000e+00	0.000000e+00	0.000000e+00
0.000000e+00	0.000000e+00	0.000000e+00
0.000000e+00	0.000000e+00	0.000000e+00
0.000000e+00	0.000000e+00	0.000000e+00
0.000000e+00	0.000000e+00	0.000000e+00
0.000000e+00	0.000000e+00	0.000000e+00
0.000000e+00	0.000000e+00	0.000000e+00
0.000000e+00	0.000000e+00	0.000000e+00
0.000000e+00	0.000000e+00	0.000000e+00
0.000000e+00	0.000000e+00	0.000000e+00
0.000000e+00	0.000000e+00	0.000000e+00
0.000000e+00	0.000000e+00	0.000000e+00
0.000000e+00	0.000000e+00	0.000000e+00
0.000000e+00	0.000000e+00	0.000000e+00
0.000000e+00	0.000000e+00	0.000000e+00
0.000000e+00	0.000000e+00	0.000000e+00
0.000000e+00	0.000000e+00	0.000000e+00
0.000000e+00	0.000000e+00	0.000000e+00
0.000000e+00	0.000000e+00	0.000000e+00
0.000000e+00	0.000000e+00	0.000000e+00
0.000000e+00	0.000000e+00	0.000000e+00
0.000000e+00	0.000000e+00	0.000000e+00
0.000000e+00	0.000000e+00	0.000000e+00
0.000000e+00	0.000000e+00	0.000000e+00
0.000000e+00	0.000000e+00	0.000000e+00
0.000000e+00	0.000000e+00	0.000000e+00
0.000000e+00	0.000000e+00	0.000000e+00
0.000000e+00	0.000000e+00	0.000000e+00
0.000000e+00	0.000000e+00	0.000000e+00
0.000000e+00	0.000000e+00	0.000000e+00
0.000000e+00	0.000000e+00	0.000000e+00
0.000000e+00	0.000000e+00	0.000000e+00
0.000000e+00	0.000000e+00	0.000000e+00
0.000000e+00	0.000000e+00	0.000000e+00
0.000000e+00	0.000000e+00	0.000000e+00
0.000000e+00	0.000000e+00	0.000000e+00
0.000000e+00	0.000000e+00	0.000000e+00
0.000000e+00	0.000000e+00	0.000000e+00
0.000000e+00	0.000000e+00	0.000000e+00
0.000000e+00	0.000000e+00	0.000000e+00
0.000000e+00	0.000000e+00	0.000000e+00
0.000000e+00	0.000000e+00	0.000000e+00
0.000000e+00	0.000000e+00	0.000000e+00
0.000000e+00	0.000000e+00	0.000000e+00
0.000000e+00	0.000000e+00	0.000000e+00
0.000000e+00	0.000000e+00	0.000000e+00
0.000000e+00	0.000000e+00	0.000000e+00
0.000000e+00	0.000000e+00	0.000000e+00
0.000000e+00	0.000000e+00	0.000000e+00
0.000000e+00	0.000000e+00	0.000000e+00
0.000000e+00	0.000000e+00	0.000000e+00
0.000000e+00	0.000000e+00	0.000000e+00
0.000000e+00	0.000000e+00	0.000000e+00
0.000000e+00	0.000000e+00	0.000000e+00
0.000000e+00	0.000000e+00	0.000000e+00
0.000000e+00	0.000000e+00	0.000000e+00
0.000000e+00	0.000000e+00	0.000000e+00
0.000000e+00	0.000000e+00	0.000000e+00
0.000000e+00	0.000000e+00	0.000000e+00
0.000000e+00	0.000000e+00	0.000000e+00
0.000000e+00	0.000000e+00	0.000000e+00
0.000000e+00	0.000000e+00	0.000000e+00
0.000000e+00	0.000000e+00	0.000000e+00
0.000000e+00	0.000000e+00	0.000000e+00
0.000000e+00	0.000000e+00	0.000000e+00
0.000000e+00	0.000000e+00	0.000000e+00
0.000000e+00	0.000000e+00	0.000000e+00
0.000000e+00	0.000000e+00	0.000000e+00
0.000000e+00	0.000000e+00	0.000000e+00
0.000000e+00	0.000000e+00	0.000000e+00
0.000000e+00	0.000000e+00	0.000000e+00
0.000000e+00	0.000000e+00	0.000000e+00
0.000000e+00	0.000000e+00	0.000000e+00
0.000000e+00	0.000000e+00	0.000000e+00
0.000000e+00	0.000000e+00	0.000000e+00
0.000000e+00	0.000000e+00	0.000000e+00
0.000000e+00	0.000000e+00	0.000000e+00
0.000000e+00	0.000000e+00	0.000000e+00
0.000000e+00	0.000000e+00	0.000000e+00
0.000000e+00	0.000000e+00	0.000000e+00
0.000000e+00	0.000000e+00	0.000000e+00
0.000000e+00	0.000000e+00	0.000000e+00
0.000000e+00	0.000000e+00	0.000000e+00
0.000000e+00	0.000000e+00	0.000000e+00
0.000000e+00	0.000000e+00	0.000000e+00
0.000000e+00	0.000000e+00	0.000000e+00
0.000000e+00	0.000000e+00	0.000000e+00
0.000000e+00	0.000000e+00	0.000000e+00
0.000000e+00	0.000000e+00	0.000000e+00
0.000000e+00	0.000000e+00	0.000000e+00
0.000000e+00	0.000000e+00	0.000000e+00
0.000000e+00	0.000000e+00	0.000000e+00
0.000000e+00	0.000000e+00	0.000000e+00
0.000000e+00	0.000000e+00	0.000000e+00
0.000000e+00	0.000000e+00	0.000000e+00
0.000000e+00	0.000000e+00	0.000000e+00
0.000000e+00	0.000000e+00	0.000000e+00
0.000000e+00	0.000000e+00	0.000000e+00
0.000000e+00	0.000000e+00	0.000000e+00
0.000000e+00	0.000000e+00	0.000000e+00
0.000000e+00	0.000000e+00	0.000000e+00
0.000000e+00	0.000000e+00	0.000000e+00
0.000000e+00	0.000000e+00	0.000000e+00
0.000000e+00	0.000000e+00	0.000000e+00
0.000000e+00	0.000000e+00	0.000000e+00
0.000000e+00	0.000000e+00	0.000000e+00
0.000000e+00	0.000000e+00	0.000000e+00
0.000000e+00	0.000000e+00	0.000000e+00
0.000000e+00	0.000000e+00	0.000000e+00
0.000000e+00	0.000000e+00	0.000000e+00
0.000000e+00	0.000000e+00	0.000000e+00
0.000000e+00	0.000000e+00	0.000000e+00
0.000000e+00	0.000000e+00	0.000000e+00
0.000000e+00	0.000000e+00	0.000000e+00
0.000000e+00	0.000000e+00	0.000000e+00
0.000000e+00	0.000000e+00	0.000000e+00
0.000000e+00	0.000000e+00	0.000000e+00
0.000000e+00	0.000000e+00	0.000000e+00
0.000000e+00	0.000000e+00	0.000000e+00
0.000000e+00	0.000000e+00	0.000000e+00
0.000000e+00	0.000000e+00	0.000000e+00
0.000000e+00	0.000000e+00	0.000000e+00
0.000000e+00	0.000000e+00	0.000000e+00
0.000000e+00	0.000000e+00	0.000000e+00
0.000000e+00	0.000000e+00	0.000000e+00
0.000000e+00	0.000000e+00	0.000000e+00
0.000000e+00	0.000000e+00	0.000000e+00
0.000000e+00	0.000000e+00	0.000000e+00
0.000000e+00	0.000000e+00	0.000000e+00
0.000000e+00	0.000000e+00	0.000000e+00
0.000000e+00	0.000000e+00	0.000000e+00
0.000000e+00	0.000000e+00	0.000000e+00
0.000000e+00	0.000000e+00	0.000000e+00
0.000000e+00	0.000000e+00	0.000000e+00
0.000000e+00	0.000000e+00	0.000000e+00
0.000000e+00	0.000000e+00	0.000000e+00
0.000000e+00	0.000000e+00	0.000000e+00
0.000000e+00	0.000000e+00	0.000000e+00
0.000000e+00	0.000000e+00	0.000000e+00
0.000000e+00	0.000000e+00	0.000000e+00
0.000000e+00	0.000000e+00	0.000000e+00
0.000000e+00	0.000000e+00	0.000000e+00
0.000000e+00	0.000000e+00	0.000000e+00
0.000000e+00	0.000000e+00	0.000000e+00
0.000000e+00	0.000000e+00	0.000000e+00
0.000000e+00	0.000000e+00	0.000000e+00
0.000000e+00	0.000000e+00	0.000000e+00
0.000000e+00	0.000000e+00	0.000000e+00
0.000000e+00	0.000000e+00	0.000000e+00
0.000000e+00	0.000000e+00	0.000000e+00
0.000000e+00	0.000000e+00	0.000000e+00
0.000000e+00	0.000000e+00	0.000000e+00
0.000000e+00	0.000000e+00	0.000000e+00
0.000000e+00	0.000000e+00	0.000000e+00
0.000000e+00	0.000000e+00	0.000000e+00
0.000000e+00	0.000000e+00	0.000000e+00
0.000000e+00	0.000000e+00	0.000000e+00
0.000000e+00	0.000000e+00	0.000000e+00
0.000000e+00	0.000000e+00	0.000000e+00
0.000000e+00	0.000000e+00	0.000000e+00
0.000000e+00	0.000000e+00	0.000000e+00
0.000000e+00	0.000000e+00	0.000000e+00
0.000000e+00	0.000000e+00	0.000000e+00
0.000000e+00	0.000000e+00	0.000000e+00
0.000000e+00	0.000000e+00	0.000000e+00
0.000000e+00	0.000000e+00	0.000000e+00
0.000000e+00	0.000000e+00	0.000000e+00
0.000000e+00	0.000000e+00	0.000000e+00
0.000000e+00	0.000000e+00	0.000000e+00
0.000000e+00	0.000000e+00	0.000000e+00
0.000000e+00	0.000000e+00	0.000000e+00
0.000000e+00	0.000000e+00	0.000000e+00
0.000000e+00	0.000000e+00	0.000000e+00
0.000000e+00	0.000000e+00	0.000000e+00
0.000000e+00	0.000000e+00	0.000000e+00
0.000000e+00	0.000000e+00	0.000000e+00
0.000000e+00	0.000000e+00	0.000000e+00
0.000000e+00	0.000000e+00	0.000000e+00
0.000000e+00	0.000000e+00	0.000000e+00
0.000000e+00	0.000000e+00	0.000000e+00
0.000000e+00	0.000000e+00	0.000000e+00
0.000000e+00	0.000000e+00	0.000000e+00
0.000000e+00	0.000000e+00	0.000000e+00
0.000000e+00	0.000000e+00	0.000000e+00
0.000000e+00	0.000000e+00	0.000000e+00
0.000000e+00	0.000000e+00	0.000000e+00
0.000000e+00	0.000000e+00	0.000000e+00
0.000000e+00	0.000000e+00	0.000000e+00
0.000000e+00	0.000000e+00	0.000000e+00
0.000000e+00	0.000000e+00	0.000000e+00
0.000000e+00	0.000000e+00	0.000000e+00
0.000000e+00	0.000000e+00	0.000000e+00
0.000000e+00	0.000000e+00	0.000000e+00
0.000000e+00	0.000000e+00	0.000000e+00
0.000000e+00	0.000000e+00	0.000000e+00
0.000000e+00	0.000000e+00	0.000000e+00
0.000000e+00	0.000000e+00	0.000000e+00
0.000000e+00	0.000000e+00	0.000000e+00
0.000000e+00	0.000000e+00	0.000000e+00
0.000000e+00	0.000000e+00	0.000000e+00
0.000000e+00	0.000000e+00	0.000000e+00
0.000000e+00	0.000000e+00	0.000000e+00
0.000000e+00	0.000000e+00	0.000000e+00
0.000000e+00	0.000000e+00	0.000000e+00
0.000000e+00	0.000000e+00	0.000000e+00
0.000000e+00	0.000000e+00	0.000000e+00
0.000000e+00	0.000000e+00	0.000000e+00
0.000000e+00	0.000000e+00	0.000000e+00
0.000000e+00	0.000000e+00	0.000000e+00
0.000000e+00	0.000000e+00	0.000000e+00
0.000000e+00	0.000000e+00	0.000000e+00
0.000000e+00	0.000000e+00	0.000000e+00
0.000000e+00	0.000000e+00	0.000000e+00
0.000000e+00	0.000000e+00	0.000000e+00
0.000000e+00	0.000000e+00	0.000000e+00
0.000000e+00	0.000000e+00	0.000000e+00
0.000000e+00	0.000000e+00	0.000000e+00
0.000000e+00	0.000000e+00	0.000000e+00
0.000000e+00	0.000000e+00	0.000000e+00
0.000000e+00	0.000000e+00	0.000000e+00
0.000000e+00	0.000000e+00	0.000000e+00
0.000000e+00	0.000000e+00	0.000000e+00
0.000000e+00	0.000000e+00	0.000000e+00
0.000000e+00	0.000000e+00	0.000000e+00
0.000000e+00	0.000000e+00	0.000000e+00
0.000000e+00	0.000000e+00	0.000000e+00
0.000000e+00	0.000000e+00	0.000000e+00
0.000000e+00	0.000000e+00	0.000000e+00
0.000000e+00	0.000000e+00	0.000000e+00
0.000000e+00	0.000000e+00	0.000000e+00
0.000000e+00	0.000000e+00	0.000000e+00
0.000000e+00	0.000000e+00	0.000000e+00
0.000000e+00	0.000000e+00	0.000000e+00
0.000000e+00	0.000000e+00	0.000000e+00
0.000000e+00	0.000000e+00	0.000000e+00
0.000000e+00	0.000000e+00	0.000000e+00
0.000000e+00	0.000000e+00	0.000000e+00
0.000000e+00	0.000000e+00	0.000000e+00
0.000000e+00	0.000000e+00	0.000000e+00
0.000000e+00	0.000000e+00	0.000000e+00
0.000000e+00	0.000000e+00	0.000000e+00
0.000000e+00	0.000000e+00	0.000000e+00
0.000000e+00	0.000000e+00	0.000000e+00
0.000000e+00	0.000000e+00	0.000000e+00
0.000000e+00	0.000000e+00	0.000000e+00
0.000000e+00	0.000000e+00	0.000000e+00
0.000000e+00	0.000000e+00	0.000000e+00
0.000000e+00	0.000000e+00	0.000000e+00
0.000000e+00	0.000000e+00	0.000000e+00
0.000000e+00	0.000000e+00	0.000000e+00
0.000000e+00	0.000000e+00	0.000000e+00
0.000000e+00	0.000000e+00	0.000000e+00
0.000000e+00	0.000000e+00	0.000000e+00
0.000000e+00	0.000000e+00	0.000000e+00
0.000000e+00	0.000000e+00	0.000000e+00
0.000000e+00	0.000000e+00	0.000000e+00
0.000000e+00	0.000000e+00	0.000000e+00
0.000000e+00	0.000000e+00	0.000000e+00
0.000000e+00	0.000000e+00	0.000000e+00
0.000000e+00	0.000000e+00	0.000000e+00
0.000000e+00	0.000000e+00	0.000000e+00
0.000000e+00	0.000000e+00	0.000000e+00
0.000000e+00	0.000000e+00	0.000000e+00
0.000000e+00	0.000000e+00	0.000000e+00
0.000000e+00	0.000000e+00	0.000000e+00
0.000000e+00	0.000000e+00	0.000000e+00
0.000000e+00	0.000000e+00	0.000000e+00
0.000000e+00	0.000000e+00	0.000000e+00
0.000000e+00	0.000000e+00	0.000000e+00
0.000000e+00	0.000000e+00	0.000000e+00
0.000000e+00	0.000000e+00	0.000000e+00
0.000000e+00	0.000000e+00	0.000000e+00
0.000000e+00	0.000000e+00	0.000000e+00
0.000000e+00	0.000000e+00	0.000000e+00
0.000000e+00	0.000000e+00	0.000000e+00
0.000000e+00	0.000000e+00	0.000000e+00
0.000000e+00	0.000000e+00	0.000000e+00
0.000000e+00	0.000000e+00	0.000000e+00
0.000000e+00	0.000000e+00	0.000000e+00
0.000000e+00	0.000000e+00	0.000000e+00
0.000000e+00	0.000000e+00	0.000000e+00
0.000000e+00	0.000000e+00	0.000000e+00
0.000000e+00	0.000000e+00	0.000000e+00
0.000000e+00	0.000000e+00	0.000000e+00
0.000000e+00	0.000000e+00	0.000000e+00
0.000000e+00	0.000000e+00	0.000000e+00
0.000000e+00	0.000000e+00	0.000000e+00
0.000000e+00	0.000000e+00	0.000000e+00
0.000000e+00	0.000000e+00	0.000000e+00
0.000000e+00	0.000000e+00	0.000000e+00
0.000000e+00	0.000000e+00	0.000000e+00
0.000000e+00	0.000000e+00	0.000000e+00
0.000000e+00	0.000000e+00	0.000000e+00
0.000000e+00	0.000000e+00	0.000000e+00
0.000000e+00	0.000000e+00	0.000000e+00
0.000000e+00	0.000000e+00	0.000000e+00
0.000000e+00	0.000000e+00	0.000000e+00
0.000000e+00	0.000000e+00	0.000000e+00
0.000000e+00	0.000000e+00	0.000000e+00
0.000000e+00	0.000000e+00	0.000000e+00
0.000000e+00	0.000000e+00	0.000000e+00
0.000000e+00	0.000000e+00	0.000000e+00
0.000000e+00	0.000000e+00	0.000000e+00
0.000000e+00	0.000000e+00	0.000000e+00
0.000000e+00	0.000000e+00	0.000000e+00
0.000000e+00	0.000000e+00	0.000000e+00
0.000000e+00	0.000000e+00	0.000000e+00
0.000000e+00	0.000000e+00	0.000000e+00
0.000000e+00	0.000000e+00	0.000000e+00
0.000000e+00	0.000000e+00	0.000000e+00
0.000000e+00	0.000000e+00	0.000000e+00
0.000000e+00	0.000000e+00	0.000000e+00
0.000000e+00	0.000000e+00	0.000000e+00
0.000000e+00	0.000000e+00	0.000000e+00
0.000000e+00	0.000000e+00	0.000000e+00
0.000000e+00	0.000000e+00	0.000000e+00
0.000000e+00	0.000000e+00	0.000000e+00
0.000000e+00	0.000000e+00	0.000000e+00
0.000000e+00	0.000000e+00	0.000000e+00
0.000000e+00	0.000000e+00	0.000000e+00
0.000000e+00	0.000000e+00	0.000000e+00
0.000000e+00	0.000000e+00	0.000000e+00
0.000000e+00	0.000000e+00	0.000000e+00
0.000000e+00	0.000000e+00	0.000000e+00
0.000000e+00	0.000000e+00	0.000000e+00
0.000000e+00	0.000000e+00	0.000000e+00
0.000000e+00	0.000000e+00	0.000000e+00
0.000000e+00	0.000000e+00	0.000000e+00
0.000000e+00	0.000000e+00	0.000000e+00
0.000000e+00	0.000000e+00	0.000000e+00
0.000000e+00	0.000000e+00	0.000000e+00
0.000000e+00	0.000000e+00	0.000000e+00
0.000000e+00	0.000000e+00	0.000000e+00
0.000000e+00	0.000000e+00	0.000000e+00
0.000000e+00	0.000000e+00	0.000000e+00
0.000000e+00	0.000000e+00	0.000000e+00
0.000000e+00	0.000000e+00	0.000000e+00
0.000000e+00	0.000000e+00	0.000000e+00
0.000000e+00	0.000000e+00	0.000000e+00
0.000000e+00	0.000000e+00	0.000000e+00
0.000000e+00	0.000000e+00	0.000000e+00
0.000000e+00	0.000000e+00	0.000000e+00
0.000000e+00	0.000000e+00	0.000000e+00
0.000000e+00	0.000000e+00	0.000000e+00
0.000000e+00	0.000000e+00	0.000000e+00
0.000000e+00	0.000000e+00	0.000000e+00
0.000000e+00	0.000000e+00	0.000000e+00
0.000000e+00	0.000000e+00	0.000000e+00
0.000000e+00	0.000000e+00	0.000000e+00
0.000000e+00	0.000000e+00	0.000000e+00
0.000000e+00	0.000000e+00	0.000000e+00
0.000000e+00	0.000000e+00	0.000000e+00
0.000000e+00	0.000000e+00	0.000000e+00
0.000000e+00	0.000000e+00	0.000000e+00
0.000000e+00	0.000000e+00	0.000000e+00
0.000000e+00	0.000000e+00	0.000000e+00
0.000000e+00	0.000000e+00	0.000000e+00
0.000000e+00	0.000000e+00	0.000000e+00
0.000000e+00	0.000000e+00	0.000000e+00
0.000000e+00	0.000000e+00	0.000000e+00
0.000000e+00	0.000000e+00	0.000000e+00
0.000000e+00	0.000000e+00	0.000000e+00
0.000000e+00	0.000000e+00	0.000000e+00
0.000000e+00	0.000000e+00	0.000000e+00
0.000000e+00	0.000000e+00	0.000000e+00
0.000000e+00	0.000000e+00	0.000000e+00
0.000000e+00	0.000000e+00	0.000000e+00
0.000000e+00	0.000000e+00	0.000000e+00
0.000000e+00	0.000000e+00	0.000000e+00
0.000000e+00	0.000000e+00	0.000000e+00
0.000000e+00	0.000000e+00	0.000000e+00
0.000000e+00	0.000000e+00	0.000000e+00
0.000000e+00	0.000000e+00	0.000000e+00
0.000000e+00	0.000000e+00	0.000000e+00
0.000000e+00	0.000000e+00	0.000000e+00
0.000000e+00	0.000000e+00	0.000000e+00
0.000000e+00	0.000000e+00	0.000000e+00
0.000000e+00	0.000000e+00	0.000000e+00
0.000000e+00	0.000000e+00	0.000000e+00
0.000000e+00	0.000000e+00	0.000000e+00
0.000000e+00	0.000000e+00	0.000000e+00
0.000000e+00	0.000000e+00	0.000000e+00
0.000000e+00	0.000000e+00	0.000000e+00
0.000000e+00	0.000000e+00	0.000000e+00
0.000000e+00	0.000000e+00	0.000000e+00
0.000000e+00	0.000000e+00	0.000000e+00
0.000000e+00	0.000000e+00	0.000000e+00
0.000000e+00	0.000000e+00	0.000000e+00
0.000000e+00	0.000000e+00	0.000000e+00
0.000000e+00	0.000000e+00	0.000000e+00
0.000000e+00	0.000000e+00	0.000000e+00
0.000000e+00	0.000000e+00	0.000000e+00
0.000000e+00	0.000000e+00	0.000000e+00
0.000000e+00	0.000000e+00	0.000000e+00
0.000000e+00	0.000000e+00	0.000000e+00
0.000000e+00	0.000000e+00	0.000000e+00
0.000000e+00	0.000000e+00	0.000000e+00
0.000000e+00	0.000000e+00	0.000000e+00
0.000000e+00	0.000000e+00	0.000000e+00
0.000000e+00	0.000000e+00	0.000000e+00
0.000000e+00	0.000000e+00	0.000000e+00
0.000000e+00	0.000000e+00	0.000000e+00
0.000000e+00	0.000000e+00	0.000000e+00
0.000000e+00	0.000000e+00	0.000000e+00
0.000000e+00	0.000000e+00	0.000000e+00
0.000000e+00	0.000000e+00	0.000000e+00
0.000000e+00	0.000000e+00	0.000000e+00
0.000000e+00	0.000000e+00	0.000000e+00
0.000000e+00	0.000000e+00	0.000000e+00
0.000000e+00	0.000000e+00	0.000000e+00
0.000000e+00	0.000000e+00	0.000000e+00
0.000000e+00	0.000000e+00	0.000000e+00
0.000000e+00	0.000000e+00	0.000000e+00
0.000000e+00	0.000000e+00	0.000000e+00
0.000000e+00	0.000000e+00	0.000000e+00
0.000000e+00	0.000000e+00	0.000000e+00
0.000000e+00	0.000000e+00	0.000000e+00
0.000000e+00	0.000000e+00	0.000000e+00
0.000000e+00	0.000000e+00	0.000000e+00
0.000000e+00	0.000000e+00	0.000000e+00
0.000000e+00	0.000000e+00	0.000000e+00
0.000000e+00	0.000000e+00	0.000000e+00
0.000000e+00	0.000000e+00	0.000000e+00
0.000000e+00	0.000000e+00	0.000000e+00
0.000000e+00	0.000000e+00	0.000000e+00
0.000000e+00	0.000000e+00	0.000000e+00
0.000000e+00	0.000000e+00	0.000000e+00
0.000000e+00	0.000000e+00	0.000000e+00
0.000000e+00	0.000000e+00	0.000000e+00
0.000000e+00	0.000000e+00	0.000000e+00
0.000000e+00	0.000000e+00	0.000000e+00
0.000000e+00	0.000000e+00	0.000000e+00
0.000000e+00	0.000000e+00	0.000000e+00
0.000000e+00	0.000000e+00	0.000000e+00
0.000000e+00	0.000000e+00	0.000000e+00
0.000000e+00	0.000000e+00	0.000000e+00
0.000000e+00	0.000000e+00	0.000000e+00
0.000000e+00	0.000000e+00	0.000000e+00
0.000000e+00	0.000000e+00	0.000000e+00
0.000000e+00	0.000000e+00	0.000000e+00
0.000000e+00	0.000000e+00	0.000000e+00
0.000000e+00	0.000000e+00	0.000000e+00
0.000000e+00	0.000000e+00	0.000000e+00
0.000000e+00	0.000000e+00	0.000000e+00
0.000000e+00	0.000000e+00	0.000000e+00
0.000000e+00	0.000000e+00	0.000000e+00
0.000000e+00	0.000000e+00	0.000000e+00
0.000000e+00	0.000000e+00	0.000000e+00
0.000000e+00	0.000000e+00	0.000000e+00
0.000000e+00	0.000000e+00	0.000000e+00
0.000000e+00	0.000000e+00	0.000000e+00
0.000000e+00	0.000000e+00	0.000000e+00
0.000000e+00	0.000000e+00	0.000000e+00
0.000000e+00	0.000000e+00	0.000000e+00
0.000000e+00	0.000000e+00	0.000000e+00
0.000000e+00	0.000000e+00	0.000000e+00
0.000000e+00	0.000000e+00	0.000000e+00
0.000000e+00	0.000000e+00	0.000000e+00
0.000000e+00	0.000000e+00	0.000000e+00
0.000000e+00	0.000000e+00	0.000000e+00
0.000000e+00	0.000000e+00	0.000000e+00
0.000000e+00	0.000000e+00	0.000000e+00
0.000000e+00	0.000000e+00	0.000000e+00
0.000000e+00	0.000000e+00	0.000000e+00
0.000000e+00	0.000000e+00	0.000000e+00
0.000000e+00	0.000000e+00	0.000000e+00
0.000000e+00	0.000000e+00	0.000000e+00
0.000000e+00	0.000000e+00	0.000000e+00
0.000000e+00	0.000000e+00	0.000000e+00
0.000000e+00	0.000000e+00	0.000000e+00
0.000000e+00	0.000000e+00	0.000000e+00
0.000000e+00	0.000000e+00	0.000000e+00
0.000000e+00	0.000000e+00	0.000000e+00
0.000000e+00	0.000000e+00	0.000000e+00
0.000000e+00	0.000000e+00	0.000000e+00
0.000000e+00	0.000000e+00	0.000000e+00
0.000000e+00	0.000000e+00	0.000000e+00
0.000000e+00	0.000000e+00	0.000000e+00
0.000000e+00	0.000000e+00	0.000000e+00
0.000000e+00	0.000000e+00	0.000000e+00
0.000000e+00	0.000000e+00	0.000000e+00
0.000000e+00	0.000000e+00	0.000000e+00
0.000000e+00	0.000000e+00	0.000000e+00
0.000000e+00	0.000000e+00	0.000000e+00
0.000000e+00	0.000000e+00	0.000000e+00
0.000000e+00	0.000000e+00	0.000000e+00
0.000000e+00	0.000000e+00	0.000000e+00
0.000000e+00	0.000000e+00	0.000000e+00
0.000000e+00	0.000000e+00	0.000000e+00
0.000000e+00	0.000000e+00	0.000000e+00
0.000000e+00	0.000000e+00	0.000000e+00
0.000000e+00	0.000000e+00	0.000000e+00
0.000000e+00	0.000000e+00	0.000000e+00
0.000000e+00	0.000000e+00	0.000000e+00
0.000000e+00	0.000000e+00	0.000000e+00
0.000000e+00	0.000000e+00	0.000000e+00
0.000000e+00	0.000000e+00	0.000000e+00
0.000000e+00	0.000000e+00	0.000000e+00
0.000000e+00	0.000000e+00	0.000000e+00
0.000000e+00	0.000000e+00	0.000000e+00
0.000000e+00	0.000000e+00	0.000000e+00
0.000000e+00	0.000000e+00	0.000000e+00
0.000000e+00	0.000000e+00	0.000000e+00
0.000000e+00	0.000000e+00	0.000000e+00
0.000000e+00	0.000000e+00	0.000000e+00
0.000000e+00	0.000000e+00	0.000000e+00
0.000000e+00	0.000000e+00	0.000000e+00
0.000000e+00	0.000000e+00	0.000000e+00
0.000000e+00	0.000000e+00	0.000000e+00
0.000000e+00	0.000000e+00	0.000000e+00
0.000000e+00	0.000000e+00	0.000000e+00
0.000000e+00	0.000000e+00	0.000000e+00
0.000000e+00	0.000000e+00	0.000000e+00
0.000000e+00	0.000000e+00	0.000000e+00
0.000000e+00	0.000000e+00	0.000000e+00
0.000000e+00	0.000000e+00	0.000000e+00
0.000000e+00	0.000000e+00	0.000000e+00
0.000000e+00	0.000000e+00	0.000000e+00
0.000000e+00	0.000000e+00	0.000000e+00
0.000000e+00	0.000000e+00	0.000000e+00
0.000000e+00	0.000000e+00	0.000000e+00
0.000000e+00	0.000000e+00	0.000000e+00
0.000000e+00	0.000000e+00	0.000000e+00
0.000000e+00	0.000000e+00	0.000000e+00
0.000000e+00	0.000000e+00	0.000000e+00
0.000000e+00	0.000000e+00	0.000000e+00
0.000000e+00	0.000000e+00	0.000000e+00
0.000000e+00	0.000000e+00	0.000000e+00
0.000000e+00	0.000000e+00	0.000000e+00
0.000000e+00	0.000000e+00	0.000000e+00
0.000000e+00	0.000000e+00	0.000000e+00
0.000000e+00	0.000000e+00	0.000000e+00
0.000000e+00	0.000000e+00	0.000000e+00
0.000000e+00	0.000000e+00	0.000000e+00
0.000000e+00	0.000000e+00	0.000000e+00
0.000000e+00	0.000000e+00	0.000000e+00
0.000000e+00	0.000000e+00	0.000000e+00
0.000000e+00	0.000000e+00	0.000000e+00
0.000000e+00	0.000000e+00	0.000000e+00
0.000000e+00	0.000000e+00	0.000000e+00
0.000000e+00	0.000000e+00	0.000000e+00
0.000000e+00	0.000000e+00	0.000000e+00
0.000000e+00	0.000000e+00	0.000000e+00
0.000000e+00	0.000000e+00	0.000000e+00
0.000000e+00	0.000000e+00	0.000000e+00
0.000000e+00	0.000000e+00	0.000000e+00
0.000000e+00	0.000000e+00	0.000000e+00
0.000000e+00	0.000000e+00	0.000000e+00
0.000000e+00	0.000000e+00	0.000000e+00
0.000000e+00	0.000000e+00	0.000000e+00
0.000000e+00	0.000000e+00	0.000000e+00
0.000000e+00	0.000000e+00	0.000000e+00
0.000000e+00	0.000000e+00	0.000000e+00
0.000000e+00	0.000000e+00	0.000000e+00
0.000000e+00	0.000000e+00	0.000000e+00
0.000000e+00	0.000000e+00	0.000000e+00
0.000000e+00	0.000000e+00	0.000000e+00
0.000000e+00	0.000000e+00	0.000000e+00
0.000000e+00	0.000000e+00	0.000000e+00
0.000000e+00	0.000000e+00	0.000000e+00
0.000000e+00	0.000000e+00	0.000000e+00
0.000000e+00	0.000000e+00	0.000000e+00
0.000000e+00	0.000000e+00	0.000000e+00
0.000000e+00	0.000000e+00	0.000000e+00
0.000000e+00	0.000000e+00	0.000000e+00
0.000000e+00	0.000000e+00	0.000000e+00
0.000000e+00	0.000000e+00	0.000000e+00
0.000000e+00	0.000000e+00	0.000000e+00
0.000000e+00	0.000000e+00	0.000000e+00
0.000000e+00	0.000000e+00	0.000000e+00
0.000000e+00	0.000000e+00	0.000000e+00
0.000000e+00	0.000000e+00	0.000000e+00
0.000000e+00	0.000000e+00	0.000000e+00
0.000000e+00	0.000000e+00	0.000000e+00
0.000000e+00	0.000000e+00	0.000000e+00
0.000000e+00	0.000000e+00	0.000000e+00
0.000000e+00	0.000000e+00	0.000000e+00
0.000000e+00	0.000000e+00	0.000000e+00
0.000000e+00	0.000000e+00	0.000000e+00
0.000000e+00	0.000000e+00	0.000000e+00
0.000000e+00	0.000000e+00	0.000000e+00
0.000000e+00	0.000000e+00	0.000000e+00
0.000000e+00	0.000000e+00	0.000000e+00
0.000000e+00	0.000000e+00	0.000000e+00
0.000000e+00	0.000000e+00	0.000000e+00
0.000000e+00	0.000000e+00	0.000000e+00
0.000000e+00	0.000000e+00	0.000000e+00
0.000000e+00	0.000000e+00	0.000000e+00
0.000000e+00	0.000000e+00	0.000000e+00
0.000000e+00	0.000000e+00	0.000000e+00
0.000000e+00	0.000000e+00	0.000000e+00
0.000000e+00	0.000000e+00	0.000000e+00
0.000000e+00	0.000000e+00	0.000000e+00
0.000000e+00	0.000000e+00	0.000000e+00
0.000000e+00	0.000000e+00	0.000000e+00
0.000000e+00	0.000000e+00	0.000000e+00
0.000000e+00	0.000000e+00	0.000000e+00
0.000000e+00	0.000000e+00	0.000000e+00
0.000000e+00	0.000000e+00	0.000000e+00
0.000000e+00	0.000000e+00	0.000000e+00
0.000000e+00	0.000000e+00	0.000000e+00
0.000000e+00	0.000000e+00	0.000000e+00
0.000000e+00	0.000000e+00	0.000000e+00
0.000000e+00	0.000000e+00	0.000000e+00
0.000000e+00	0.000000e+00	0.000000e+00
0.000000e+00	0.000000e+00	0.000000e+00
0.000000e+00	0.000000e+00	0.000000e+00
0.000000e+00	0.000000e+00	0.000000e+00
0.000000e+00	0.000000e+00	0.000000e+00
0.000000e+00	0.000000e+00	0.000000e+00
0.000000e+00	0.000000e+00	0.000000e+00
0.000000e+00	0.000000e+00	0.000000e+00
0.000000e+00	0.000000e+00	0.000000e+00
0.000000e+00	0.000000e+00	0.000000e+00
0.000000e+00	0.000000e+00	0.000000e+00
0.000000e+00	0.000000e+00	0.000000e+00
0.000000e+00	0.000000e+00	0.000000e+00
0.000000e+00	0.000000e+00	0.000000e+00
0.000000e+00	0.000000e+00	0.000000e+00
0.000000e+00	0.000000e+00	0.000000e+00
0.000000e+00	0.000000e+00	0.000000e+00
0.000000e+00	0.000000e+00	0.000000e+00
0.000000e+00	0.000000e+00	0.000000e+00
0.000000e+00	0.000000e+00	0.000000e+00
0.000000e+00	0.000000e+00	0.000000e+00
0.000000e+00	0.000000e+00	0.000000e+00
0.000000e+00	0.000000e+00	0.000000e+00
0.000000e+00	0.000000e+00	0.000000e+00
0.000000e+00	0.000000e+00	0.000000e+00
0.000000e+00	0.000000e+00	0.000000e+00
0.000000e+00	0.000000e+00	0.000000e+00
0.000000e+00	0.000000e+00	0.000000e+00
0.000000e+00	0.000000e+00	0.000000e+00
0.000000e+00	0.000000e+00	0.000000e+00
0.000000e+00	0.000000e+00	0.000000e+00
0.000000e+00	0.000000e+00	0.000000e+00
0.000000e+00	0.000000e+00	0.000000e+00
0.000000e+00	0.000000e+00	0.000000e+00
0.000000e+00	0.000000e+00	0.000000e+00
0.000000e+00	0.000000e+00	0.000000e+00
0.000000e+00	0.000000e+00	0.000000e+00
0.000000e+00	0.000000e+00	0.000000e+00
0.000000e+00	0.000000e+00	0.000000e+00
0.000000e+00	0.000000e+00	0.000000e+00
0.000000e+00	0.000000e+00	0.000000e+00
0.000000e+00	0.000000e+00	0.000000e+00
0.000000e+00	0.000000e+00	0.000000e+00
0.000000e+00	0.000000e+00	0.000000e+00
0.000000e+00	0.000000e+00	0.000000e+00
0.000000e+00	0.000000e+00	0.000000e+00
0.000000e+00	0.000000e+00	0.000000e+00
0.000000e+00	0.000000e+00	0.000000e+00
0.000000e+00	0.000000e+00	0.000000e+00
0.000000e+00	0.000000e+00	0.000000e+00
0.000000e+00	0.000000e+00	0.000000e+00
0.000000e+00	0.000000e+00	0.000000e+00
0.000000e+00	0.000000e+00	0.000000e+00
0.000000e+00	0.000000e+00	0.000000e+00
0.000000e+00	0.000000e+00	0.000000e+00
0.000000e+00	0.000000e+00	0.000000e+00
0.000000e+00	0.000000e+00	0.000000e+00
0.000000e+00	0.000000e+00	0.000000e+00
0.000000e+00	0.000000e+00	0.000000e+00
0.000000e+00	0.000000e+00	0.000000e+00
0.000000e+00	0.000000e+00	0.000000e+00
0.000000e+00	0.000000e+00	0.000000e+00
0.000000e+00	0.000000e+00	0.000000e+00
0.000000e+00	0.000000e+00	0.000000e+00
0.000000e+00	0.000000e+00	0.000000e+00
0.000000e+00	0.000000e+00	0.000000e+00
0.000000e+00	0.000000e+00	0.000000e+00
0.000000e+00	0.000000e+00	0.000000e+00
0.000000e+00	0.000000e+00	0.000000e+00
0.000000e+00	0.000000e+00	0.000000e+00
0.000000e+00	0.000000e+00	0.000000e+00
0.000000e+00	0.000000e+00	0.000000e+00
0.000000e+00	0.000000e+00	0.000000e+00
0.000000e+00	0.000000e+00	0.000000e+00
0.000000e+00	0.000000e+00	0.000000e+00
0.000000e+00	0.000000e+00	0.000000e+00
0.000000e+00	0.000000e+00	0.000000e+00
0.000000e+00	0.000000e+00	0.000000e+00
0.000000e+00	0.000000e+00	0.000000e+00
0.000000e+00	0.000000e+00	0.000000e+00
0.000000e+00	0.000000e+00	0.000000e+00
0.000000e+00	0.000000e+00	0.000000e+00
0.000000e+00	0.000000e+00	0.000000e+00
0.000000e+00	0.000000e+00	0.000000e+00
0.000000e+00	0.000000e+00	0.000000e+00
0.000000e+00	0.000000e+00	0.000000e+00
0.000000e+00	0.000000e+00	0.000000e+00
0.000000e+00	0.000000e+00	0.000000e+00
0.000000e+00	0.000000e+00	0.000000e+00
0.000000e+00	0.000000e+00	0.000000e+00
0.000000e+00	0.000000e+00	0.000000e+00
0.000000e+00	0.000000e+00	0.000000e+00
0.000000e+00	0.000000e+00	0.000000e+00
0.000000e+00	0.000000e+00	0.000000e+00
0.000000e+00	0.000000e+00	0.000000e+00
0.000000e+00	0.000000e+00	0.000000e+00
0.000000e+00	0.000000e+00	0.000000e+00
0.000000e+00	0.000000e+00	0.000000e+00
0.000000e+00	0.000000e+00	0.000000e+00
0.000000e+00	0.000000e+00	0.000000e+00
0.000000e+00	0.000000e+00	0.000000e+00
0.000000e+00	0.000000e+00	0.000000e+00
0.000000e+00	0.000000e+00	0.000000e+00
0.000000e+00	0.000000e+00	0.000000e+00
0.000000e+00	0.000000e+00	0.000000e+00
0.000000e+00	0.000000e+00	0.000000e+00
0.000000e+00	0.000000e+00	0.000000e+00
0.000000e+00	0.000000e+00	0.000000e+00
0.000000e+00	0.000000e+00	0.000000e+00
0.000000e+00	0.000000e+00	0.000000e+00
0.000000e+00	0.000000e+00	0.000000e+00
0.000000e+00	0.000000e+00	0.000000e+00
0.000000e+00	0.000000e+00	0.000000e+00
0.000000e+00	0.000000e+00	0.000000e+00
0.000000e+00	0.000000e+00	0.000000e+00
0.000000e+00	0.000000e+00	0.000000e+00
0.000000e+00	0.000000e+00	0.000000e+00
0.000000e+00	0.000000e+00	0.000000e+00
0.000000e+00	0.000000e+00	0.000000e+00
0.000000e+00	0.000000e+00	0.000000e+00
0.000000e+00	0.000000e+00	0.000000e+00
0.000000e+00	0.000000e+00	0.000000e+00
0.000000e+00	0.000000e+00	0.000000e+00
0.000000e+00	0.000000e+00	0.000000e+00
0.000000e+00	0.000000e+00	0.000000e+00
0.000000e+00	0.000000e+00	0.000000e+00
0.000000e+00	0.000000e+00	0.000000e+00
0.000000e+00	0.000000e+00	0.000000e+00
0.000000e+00	0.000000e+00	0.000000e+00
0.000000e+00	0.000000e+00	0.000000e+00
0.000000e+00	0.000000e+00	0.000000e+00
0.000000e+00	0.000000e+00	0.000000e+00
0.000000e+00	0.000000e+00	0.000000e+00
0.000000e+00	0.000000e+00	0.000000e+00
0.000000e+00	0.000000e+00	0.000000e+00
0.000000e+00	0.000000e+00	0.000000e+00
0.000000e+00	0.000000e+00	0.000000e+00
0.000000e+00	0.000000e+00	0.000000e+00
0.000000e+00	0.000000e+00	0.000000e+00
0.000000e+00	0.000000e+00	0.000000e+00
0.000000e+00	0.000000e+00	0.000000e+00
0.000000e+00	0.000000e+00	0.000000e+00
0.000000e+00	0.000000e+00	0.000000e+00
0.000000e+00	0.000000e+00	0.000000e+00
0.000000e+00	0.000000e+00	0.000000e+00
0.000000e+00	0.000000e+00	0.000000e+00
0.000000e+00	0.000000e+00	0.000000e+00
0.000000e+00	0.000000e+00	0.000000e+00
0.000000e+00	0.000000e+00	0.000000e+00
0.000000e+00	0.000000e+00	0.000000e+00
0.000000e+00	0.000000e+00	0.000000e+00
0.000000e+00	0.000000e+00	0.000000e+00
0.000000e+00	0.000000e+00	0.000000e+00
0.000000e+00	0.000000e+00	0.000000e+00
0.000000e+00	0.000000e+00	0.000000e+00
0.000000e+00	0.000000e+00	0.000000e+00
0.000000e+00	0.000000e+00	0.000000e+00
0.000000e+00	0.000000e+00	0.000000e+00
0.000000e+00	0.000000e+00	0.000000e+00
0.000000e+00	0.000000e+00	0.000000e+00
0.000000e+00	0.000000e+00	0.000000e+00
0.000000e+00	0.000000e+00	0.000000e+00
0.000000e+00	0.000000e+00	0.000000e+00
0.000000e+00	0.000000e+00	0.000000e+00
0.000000e+00	0.000000e+00	0.000000e+00
0.000000e+00	0.000000e+00	0.000000e+00
0.000000e+00	0.000000e+00	0.000000e+00
0.000000e+00	0.000000e+00	0.000000e+00
0.000000e+00	0.000000e+00	0.000000e+00
0.000000e+00	0.000000e+00	0.000000e+00
0.000000e+00	0.000000e+00	0.000000e+00
0.000000e+00	0.000000e+00	0.000000e+00
0.000000e+00	0.000000e+00	0.000000e+00
0.000000e+00	0.000000e+00	0.000000e+00
0.000000e+00	0.000000e+00	0.000000e+00
0.000000e+00	0.000000e+00	0.000000e+00
0.000000e+00	0.000000e+00	0.000000e+00
0.000000e+00	0.000000e+00	0.000000e+00
0.000000e+00	0.000000e+00	0.000000e+00
0.000000e+00	0.000000e+00	0.000000e+00
0.000000e+00	0.000000e+00	0.000000e+00
0.000000e+00	0.000000e+00	0.000000e+00
0.000000e+00	0.000000e+00	0.000000e+00
0.000000e+00	0.000000e+00	0.000000e+00
0.000000e+00	0.000000e+00	0.000000e+00
0.000000e+00	0.000000e+00	0.000000e+00
0.000000e+00	0.000000e+00	0.000000e+00
0.000000e+00	0.000000e+00	0.000000e+00
0.000000e+00	0.000000e+00	0.000000e+00
0.000000e+00	0.000000e+00	0.000000e+00
0.000000e+00	0.000000e+00	0.000000e+00
0.000000e+00	0.000000e+00	0.000000e+00
0.000000e+00	0.000000e+00	0.000000e+00
0.000000e+00	0.000000e+00	0.000000e+00
0.000000e+00	0.000000e+00	0.000000e+00
0.000000e+00	0.000000e+00	0.000000e+00
0.000000e+00	0.000000e+00	0.000000e+00
0.000000e+00	0.000000e+00	0.000000e+00
0.000000e+00	0.000000e+00	0.000000e+00
0.000000e+00	0.000000e+00	0.000000e+00
0.000000e+00	0.000000e+00	0.000000e+00
0.000000e+00	0.000000e+00	0.000000e+00
0.000000e+00	0.000000e+00	0.000000e+00
0.000000e+00	0.000000e+00	0.000000e+00
0.000000e+00	0.000000e+00	0.000000e+00
0.000000e+00	0.000000e+00	0.000000e+00
0.000000e+00	0.000000e+00	0.000000e+00
0.000000e+00	0.000000e+00	0.000000e+00
0.000000e+00	0.000000e+00	0.000000e+00
0.000000e+00	0.000000e+00	0.000000e+00
0.000000e+00	0.000000e+00	0.000000e+00
0.000000e+00	0.000000e+00	0.000000e+00
0.000000e+00	0.000000e+00	0.000000e+00
0.000000e+00	0.000000e+00	0.000000e+00
0.000000e+00	0.000000e+00	0.000000e+00
0.000000e+00	0.000000e+00	0.000000e+00
0.000000e+00	0.000000e+00	0.000000e+00
0.000000e+00	0.000000e+00	0.000000e+00
0.000000e+00	0.000000e+00	0.000000e+00
0.000000e+00	0.000000e+00	0.000000e+00
0.000000e+00	0.000000e+00	0.000000e+00
0.000000e+00	0.000000e+00	0.000000e+00
0.000000e+00	0.000000e+00	0.000000e+00
0.000000e+00	0.000000e+00	0.000000e+00
0.000000e+00	0.000000e+00	0.000000e+00
0.000000e+00	0.000000e+00	0.000000e+00
0.000000e+00	0.000000e+00	0.000000e+00
0.000000e+00	0.000000e+00	0.000000e+00
0.000000e+00	0.000000e+00	0.000000e+00
0.000000e+00	0.000000e+00	0.000000e+00
0.000000e+00	0.000000e+00	0.000000e+00
0.000000e+00	0.000000e+00	0.000000e+00
0.000000e+00	0.000000e+00	0.000000e+00
0.000000e+00	0.000000e+00	0.000000e+00
0.000000e+00	0.000000e+00	0.000000e+00
0.000000e+00	0.000000e+00	0.000000e+00
0.000000e+00	0.000000e+00	0.000000e+00
0.000000e+00	0.000000e+00	0.000000e+00
0.000000e+00	0.000000e+00	0.000000e+00
0.000000e+00	0.000000e+00	0.000000e+00
0.000000e+00	0.000000e+00	0.000000e+00
0.000000e+00	0.000000e+00	0.000000e+00
0.000000e+00	0.000000e+00	0.000000e+00
0.000000e+00	0.000000e+00	0.000000e+00
0.000000e+00	0.000000e+00	0.000000e+00
0.000000e+00	0.000000e+00	0.000000e+00
0.000000e+00	0.000000e+00	0.000000e+00
0.000000e+00	0.000000e+00	0.000000e+00
0.000000e+00	0.000000e+00	0.000000e+00
0.000000e+00	0.000000e+00	0.000000e+00
0.000000e+00	0.000000e+00	0.000000e+00
0.000000e+00	0.000000e+00	0.000000e+00
0.000000e+00	0.000000e+00	0.000000e+00
0.000000e+00	0.000000e+00	0.000000e+00
0.000000e+00	0.000000e+00	0.000000e+00
0.000000e+00	0.000000e+00	0.000000e+00
0.000000e+00	0.000000e+00	0.000000e+00
0.000000e+00	0.000000e+00	0.000000e+00
0.000000e+00	0.000000e+00	0.000000e+00
0.000000e+00	0.000000e+00	0.000000e+00
0.000000e+00	0.000000e+00	0.000000e+00
0.000000e+00	0.000000e+00	0.000000e+00
0.000000e+00	0.000000e+00	0.000000e+00
0.000000e+00	0.000000e+00	0.000000e+00
0.000000e+00	0.000000e+00	0.000000e+00
0.000000e+00	0.000000e+00	0.000000e+00
0.000000e+00	0.000000e+00	0.000000e+00
0.000000e+00	0.000000e+00	0.000000e+00
0.000000e+00	0.000000e+00	0.000000e+00
0.000000e+00	0.000000e+00	0.000000e+00
0.000000e+00	0.000000e+00	0.000000e+00
0.000000e+00	0.000000e+00	0.000000e+00
0.000000e+00	0.000000e+00	0.000000e+00
0.000000e+00	0.000000e+00	0.000000e+00
0.000000e+00	0.000000e+00	0.000000e+00
0.000000e+00	0.000000e+00	0.000000e+00
0.000000e+00	0.000000e+00	0.000000e+00
0.000000e+00	0.000000e+00	0.000000e+00
0.000000e+00	0.000000e+00	0.000000e+00
0.000000e+00	0.000000e+00	0.000000e+00
0.000000e+00	0.000000e+00	0.000000e+00
0.000000e+00	0.000000e+00	0.000000e+00
0.000000e+00	0.000000e+00	0.000000e+00
0.000000e+00	0.000000e+00	0.000000e+00
0.000000e+00	0.000000e+00	0.000000e+00
0.000000e+00	0.000000e+00	0.000000e+00
0.000000e+00	0.000000e+00	0.000000e+00
0.000000e+00	0.000000e+00	0.000000e+00
0.000000e+00	0.000000e+00	0.000000e+00
0.000000e+00	0.000000e+00	0.000000e+00
0.000000e+00	0.000000e+00	0.000000e+00
0.000000e+00	0.000000e+00	0.000000e+00
0.000000e+00	0.000000e+00	0.000000e+00
0.000000e+00	0.000000e+00	0.000000e+00
0.000000e+00	0.000000e+00	0.000000e+00
0.000000e+00	0.000000e+00	0.000000e+00
0.000000e+00	0.000000e+00	0.000000e+00
0.000000e+00	0.000000e+00	0.000000e+00
0.000000e+00	0.000000e+00	0.000000e+00
0.000000e+00	0.000000e+00	0.000000e+00
0.000000e+00	0.000000e+00	0.000000e+00
0.000000e+00	0.000000e+00	0.000000e+00
0.000000e+00	0.000000e+00	0.000000e+00
0.000000e+00	0.000000e+00	0.000000e+00
0.000000e+00	0.000000e+00	0.000000e+00
0.000000e+00	0.000000e+00	0.000000e+00
0.000000e+00	0.000000e+00	0.000000e+00
0.000000e+00	0.000000e+00	0.000000e+00
0.000000e+00	0.000000e+00	0.000000e+00
0.000000e+00	0.000000e+00	0.000000e+00
0.000000e+00	0.000000e+00	0.000000e+00
0.000000e+00	0.000000e+00	0.000000e+00
0.000000e+00	0.000000e+00	0.000000e+00
0.000000e+00	0.000000e+00	0.000000e+00
0.000000e+00	0.000000e+00	0.000000e+00
0.000000e+00	0.000000e+00	0.000000e+00
0.000000e+00	0.000000e+00	0.000000e+00
0.000000e+00	0.000000e+00	0.000000e+00
0.000000e+00	0.000000e+00	0.000000e+00
0.000000e+00	0.000000e+00	0.000000e+00
0.000000e+00	0.000000e+00	0.000000e+00
0.000000e+00	0.000000e+00	0.000000e+00
0.000000e+00	0.000000e+00	0.000000e+00
0.000000e+00	0.000000e+00	0.000000e+00
0.000000e+00	0.000000e+00	0.000000e+00
0.000000e+00	0.000000e+00	0.000000e+00
0.000000e+00	0.000000e+00	0.000000e+00
0.000000e+00	0.000000e+00	0.000000e+00
0.000000e+00	0.000000e+00	0.000000e+00
0.000000e+00	0.000000e+00	0.000000e+00
0.000000e+00	0.000000e+00	0.000000e+00
0.000000e+00	0.000000e+00	0.000000e+00
0.000000e+00	0.000000e+00	0.000000e+00
0.000000e+00	0.000000e+00	0.000000e+00
0.000000e+00	0.000000e+00	0.000000e+00
0.000000e+00	0.000000e+00	0.000000e+00
0.000000e+00	0.000000e+00	0.000000e+00
0.000000e+00	0.000000e+00	0.000000e+00
0.000000e+00	0.000000e+00	0.000000e+00
0.000000e+00	0.000000e+00	0.000000e+00
0.000000e+00	0.000000e+00	0.000000e+00
0.000000e+00	0.000000e+00	0.000000e+00
0.000000e+00	0.000000e+00	0.000000e+00
0.000000e+00	0.000000e+00	0.000000e+00
0.000000e+00	0.000000e+00	0.000000e+00
0.000000e+00	0.000000e+00	0.000000e+00
0.000000e+00	0.000000e+00	0.000000e+00
0.000000e+00	0.000000e+00	0.000000e+00
0.000000e+00	0.000000e+00	0.000000e+00
0.000000e+00	0.000000e+00	0.000000e+00
0.000000e+00	0.000000e+00	0.000000e+00
0.000000e+00	0.000000e+00	0.000000e+00
0.000000e+00	0.000000e+00	0.000000e+00
0.000000e+00	0.000000e+00	0.000000e+00
0.000000e+00	0.000000e+00	0.000000e+00
0.000000e+00	0.000000e+00	0.000000e+00
0.000000e+00	0.000000e+00	0.000000e+00
0.000000e+00	0.000000e+00	0.000000e+00
0.000000e+00	0.000000e+00	0.000000e+00
0.000000e+00	0.000000e+00	0.000000e+00
0.000000e+00	0.000000e+00	0.000000e+00
0.000000e+00	0.000000e+00	0.000000e+00
0.000000e+00	0.000000e+00	0.000000e+00
0.000000e+00	0.000000e+00	0.000000e+00
0.000000e+00	0.000000e+00	0.000000e+00
0.000000e+00	0.000000e+00	0.000000e+00
0.000000e+00	0.000000e+00	0.000000e+00
0.000000e+00	0.000000e+00	0.000000e+00
0.000000e+00	0.000000e+00	0.000000e+00
0.000000e+00	0.000000e+00	0.000000e+00
0.000000e+00	0.000000e+00	0.000000e+00
0.000000e+00	0.000000e+00	0.000000e+00
0.000000e+00	0.000000e+00	0.000000e+00
0.000000e+00	0.000000e+00	0.000000e+00
0.000000e+00	0.000000e+00	0.000000e+00
0.000000e+00	0.000000e+00	0.000000e+00
0.000000e+00	0.000000e+00	0.000000e+00
0.000000e+00	0.000000e+00	0.000000e+00
0.000000e+00	0.000000e+00	0.000000e+00
0.000000e+00	0.000000e+00	0.000000e+00
0.000000e+00	0.000000e+00	0.000000e+00
0.000000e+00	0.000000e+00	0.000000e+00
0.000000e+00	0.000000e+00	0.000000e+00
0.000000e+00	0.000000e+00	0.000000e+00
0.000000e+00	0.000000e+00	0.000000e+00
0.000000e+00	0.000000e+00	0.000000e+00
0.000000e+00	0.000000e+00	0.000000e+00
0.000000e+00	0.000000e+00	0.000000e+00
0.000000e+00	0.000000e+00	0.000000e+00
0.000000e+00	0.000000e+00	0.000000e+00
0.000000e+00	0.000000e+00	0.000000e+00
0.000000e+00	0.000000e+00	0.000000e+00
0.000000e+00	0.000000e+00	0.000000e+00
0.000000e+00	0.000000e+00	0.000000e+00
0.000000e+00	0.000000e+00	0.000000e+00
0.000000e+00	0.000000e+00	0.000000e+00
0.000000e+00	0.000000e+00	0.000000e+00
0.000000e+00	0.000000e+00	0.000000e+00
0.000000e+00	0.000000e+00	0.000000e+00
0.000000e+00	0.000000e+00	0.000000e+00
0.000000e+00	0.000000e+00	0.000000e+00
0.000000e+00	0.000000e+00	0.000000e+00
0.000000e+00	0.000000e+00	0.000000e+00
0.000000e+00	0.000000e+00	0.000000e+00
0.000000e+00	0.000000e+00	0.000000e+00
0.000000e+00	0.000000e+00	0.000000e+00
0.000000e+00	0.000000e+00	0.000000e+00
0.000000e+00	0.000000e+00	0.000000e+00
0.000000e+00	0.000000e+00	0.000000e+00
0.000000e+00	0.000000e+00	0.000000e+00
0.000000e+00	0.000000e+00	0.000000e+00
0.000000e+00	0.000000e+00	0.000000e+00
0.000000e+00	0.000000e+00	0.000000e+00
0.000000e+00	0.000000e+00	0.000000e+00
0.000000e+00	0.000000e+00	0.000000e+00
0.000000e+00	0.000000e+00	0.000000e+00
0.000000e+00	0.000000e+00	0.000000e+00
0.000000e+00	0.000000e+00	0.000000e+00
0.000000e+00	0.000000e+00	0.000000e+00
0.000000e+00	0.000000e+00	0.000000e+00
0.000000e+00	0.000000e+00	0.000000e+00
0.000000e+00	0.000000e+00	0.000000e+00
0.000000e+00	0.000000e+00	0.000000e+00
0.000000e+00	0.000000e+00	0.000000e+00
0.000000e+00	0.000000e+00	0.000000e+00
0.000000e+00	0.000000e+00	0.000000e+00
0.000000e+00	0.000000e+00	0.000000e+00
0.000000e+00	0.000000e+00	0.000000e+00
0.000000e+00	0.000000e+00	0.000000e+00
0.000000e+00	0.000000e+00	0.000000e+00
0.000000e+00	0.000000e+00	0.000000e+00
0.000000e+00	0.000000e+00	0.000000e+00
0.000000e+00	0.000000e+00	0.000000e+00
0.000000e+00	0.000000e+00	0.000000e+00
0.000000e+00	0.000000e+00	0.000000e+00
0.000000e+00	0.000000e+00	0.000000e+00
0.000000e+00	0.000000e+00	0.000000e+00
0.000000e+00	0.000000e+00	0.000000e+00
0.000000e+00	0.000000e+00	0.000000e+00
0.000000e+00	0.000000e+00	0.000000e+00
0.000000e+00	0.000000e+00	0.000000e+00
0.000000e+00	0.000000e+00	0.000000e+00
0.000000e+00	0.000000e+00	0.000000e+00
0.000000e+00	0.000000e+00	0.000000e+00
0.000000e+00	0.000000e+00	0.000000e+00
0.000000e+00	0.000000e+00	0.000000e+00
0.000000e+00	0.000000e+00	0.000000e+00
0.000000e+00	0.000000e+00	0.000000e+00
0.000000e+00	0.000000e+00	0.000000e+00
0.000000e+00	0.000000e+00	0.000000e+00
0.000000e+00	0.000000e+00	0.000000e+00
0.000000e+00	0.000000e+00	0.000000e+00
0.000000e+00	0.000000e+00	0.000000e+00
0.000000e+00	0.000000e+00	0.000000e+00
0.000000e+00	0.000000e+00	0.000000e+00
0.000000e+00	0.000000e+00	0.000000e+00
0.000000e+00	0.000000e+00	0.000000e+00
0.000000e+00	0.000000e+00	0.000000e+00
0.000000e+00	0.000000e+00	0.000000e+00
0.000000e+00	0.000000e+00	0.000000e+00
0.000000e+00	0.000000e+00	0.000000e+00
0.000000e+00	0.000000e+00	0.000000e+00
0.000000e+00	0.000000e+00	0.000000e+00
0.000000e+00	0.000000e+00	0.000000e+00
0.000000e+00	0.000000e+00	0.000000e+00
0.000000e+00	0.000000e+00	0.000000e+00
0.000000e+00	0.000000e+00	0.000000e+00
0.000000e+00	0.000000e+00	0.000000e+00
0.000000e+00	0.000000e+00	0.000000e+00
0.000000e+00	0.000000e+00	0.000000e+00
0.000000e+00	0.000000e+00	0.000000e+00
0.000000e+00	0.000000e+00	0.000000e+00
0.000000e+00	0.000000e+00	0.000000e+00
0.000000e+00	0.000000e+00	0.000000e+00
0.000000e+00	0.000000e+00	0.000000e+00
0.000000e+00	0.000000e+00	0.000000e+00
0.000000e+00	0.000000e+00	0.000000e+00
0.000000e+00	0.000000e+00	0.000000e+00
0.000000e+00	0.000000e+00	0.000000e+00
0.000000e+00	0.000000e+00	0.000000e+00
0.000000e+00	0.000000e+00	0.000000e+00
0.000000e+00	0.000000e+00	0.000000e+00
0.000000e+00	0.000000e+00	0.000000e+00
0.000000e+00	0.000000e+00	0.000000e+00
0.000000e+00	0.000000e+00	0.000000e+00
0.000000e+00	0.000000e+00	0.000000e+00
0.000000e+00	0.000000e+00	0.000000e+00
0.000000e+00	0.000000e+00	0.000000e+00
0.000000e+00	0.000000e+00	0.000000e+00
0.000000e+00	0.000000e+00	0.000000e+00
0.000000e+00	0.000000e+00	0.000000e+00
0.000000e+00	0.000000e+00	0.000000e+00
0.000000e+00	0.000000e+00	0.000000e+00
0.000000e+00	0.000000e+00	0.000000e+00
0.000000e+00	0.000000e+00	0.000000e+00
0.000000e+00	0.000000e+00	0.000000e+00
0.000000e+00	0.000000e+00	0.000000e+00
0.000000e+00	0.000000e+00	0.000000e+00
0.000000e+00	0.000000e+00	0.000000e+00
0.000000e+00	0.000000e+00	0.000000e+00
0.000000e+00	0.000000e+00	0.000000e+00
0.000000e+00	0.000000e+00	0.000000e+00
0.000000e+00	0.000000e+00	0.000000e+00
0.000000e+00	0.000000e+00	0.000000e+00
0.000000e+00	0.000000e+00	0.000000e+00
0.000000e+00	0.000000e+00	0.000000e+00
0.000000e+00	0.000000e+00	0.000000e+00
0.000000e+00	0.000000e+00	0.000000e+00
0.000000e+00	0.000000e+00	0.000000e+00
0.000000e+00	0.000000e+00	0.000000e+00
0.000000e+00	0.000000e+00	0.000000e+00
0.000000e+00	0.000000e+00	0.000000e+00
0.000000e+00	0.000000e+00	0.000000e+00
0.000000e+00	0.000000e+00	0.000000e+00
0.000000e+00	0.000000e+00	0.000000e+00
0.000000e+00	0.000000e+00	0.000000e+00
0.000000e+00	0.000000e+00	0.000000e+00
0.000000e+00	0.000000e+00	0.000000e+00
0.000000e+00	0.000000e+00	0.000000e+00
0.000000e+00	0.000000e+00	0.000000e+00
0.000000e+00	0.000000e+00	0.000000e+00
0.000000e+00	0.000000e+00	0.000000e+00
0.000000e+00	0.000000e+00	0.000000e+00
0.000000e+00	0.000000e+00	0.000000e+00
0.000000e+00	0.000000e+00	0.000000e+00
0.000000e+00	0.000000e+00	0.000000e+00
0.000000e+00	0.000000e+00	0.000000e+00
0.000000e+00	0.000000e+00	0.000000e+00
0.000000e+00	0.000000e+00	0.000000e+00
0.000000e+00	0.000000e+00	0.000000e+00
0.000000e+00	0.000000e+00	0.000000e+00
0.000000e+00	0.000000e+00	0.000000e+00
0.000000e+00	0.000000e+00	0.000000e+00
0.000000e+00	0.000000e+00	0.000000e+00
0.000000e+00	0.000000e+00	0.000000e+00
0.000000e+00	0.000000e+00	0.000000e+00
0.000000e+00	0.000000e+00	0.000000e+00
0.000000e+00	0.000000e+00	0.000000e+00
0.000000e+00	0.000000e+00	0.000000e+00
0.000000e+00	0.000000e+00	0.000000e+00
0.000000e+00	0.000000e+00	0.000000e+00
0.000000e+00	0.000000e+00	0.000000e+00
0.000000e+00	0.000000e+00	0.000000e+00
0.000000e+00	0.000000e+00	0.000000e+00
0.000000e+00	0.000000e+00	0.000000e+00
0.000000e+00	0.000000e+00	0.000000e+00
0.000000e+00	0.000000e+00	0.000000e+00
0.000000e+00	0.000000e+00	0.000000e+00
0.000000e+00	0.000000e+00	0.000000e+00
0.000000e+00	0.000000e+00	0.000000e+00
0.000000e+00	0.000000e+00	0.000000e+00
0.000000e+00	0.000000e+00	0.000000e+00
0.000000e+00	0.000000e+00	0.000000e+00
0.000000e+00	0.000000e+00	0.000000e+00
0.000000e+00	0.000000e+00	0.000000e+00
0.000000e+00	0.000000e+00	0.000000e+00
0.000000e+00	0.000000e+00	0.000000e+00
0.000000e+00	0.000000e+00	0.000000e+00
0.000000e+00	0.000000e+00	0.000000e+00
0.000000e+00	0.000000e+00	0.000000e+00
0.000000e+00	0.000000e+00	0.000000e+00
0.000000e+00	0.000000e+00	0.000000e+00
0.000000e+00	0.000000e+00	0.000000e+00
0.000000e+00	0.000000e+00	0.000000e+00
0.000000e+00	0.000000e+00	0.000000e+00
0.000000e+00	0.000000e+00	0.000000e+00
0.000000e+00	0.000000e+00	0.000000e+00
0.000000e+00	0.000000e+00	0.000000e+00
0.000000e+00	0.000000e+00	0.000000e+00
0.000000e+00	0.000000e+00	0.000000e+00
0.000000e+00	0.000000e+00	0.000000e+00
0.000000e+00	0.000000e+00	0.000000e+00
0.000000e+00	0.000000e+00	0.000000e+00
0.000000e+00	0.000000e+00	0.000000e+00
0.000000e+00	0.000000e+00	0.000000e+00
0.000000e+00	0.000000e+00	0.000000e+00
0.000000e+00	0.000000e+00	0.000000e+00
0.000000e+00	0.000000e+00	0.000000e+00
0.000000e+00	0.000000e+00	0.000000e+00
0.000000e+00	0.000000e+00	0.000000e+00
0.000000e+00	0.000000e+00	0.000000e+00
0.000000e+00	0.000000e+00	0.000000e+00
0.000000e+00	0.000000e+00	0.000000e+00
0.000000e+00	0.000000e+00	0.000000e+00
0.000000e+00	0.000000e+00	0.000000e+00
0.000000e+00	0.000000e+00	0.000000e+00
0.000000e+00	0.000000e+00	0.000000e+00
0.000000e+00	0.000000e+00	0.000000e+00
0.000000e+00	0.000000e+00	0.000000e+00
0.000000e+00	0.000000e+00	0.000000e+00
0.000000e+00	0.000000e+00	0.000000e+00
0.000000e+00	0.000000e+00	0.000000e+00
0.000000e+00	0.000000e+00	0.000000e+00
0.000000e+00	0.000000e+00	0.000000e+00
0.000000e+00	0.000000e+00	0.000000e+00
0.000000e+00	0.000000e+00	0.000000e+00
0.000000e+00	0.000000e+00	0.000000e+00
0.000000e+00	0.000000e+00	0.000000e+00
0.000000e+00	0.000000e+00	0.000000e+00
0.000000e+00	0.000000e+00	0.000000e+00
0.000000e+00	0.000000e+00	0.000000e+00
0.000000e+00	0.000000e+00	0.000000e+00
0.000000e+00	0.000000e+00	0.000000e+00
0.000000e+00	0.000000e+00	0.000000e+00
0.000000e+00	0.000000e+00	0.000000e+00
0.000000e+00	0.000000e+00	0.000000e+00
0.000000e+00	0.000000e+00	0.000000e+00
0.000000e+00	0.000000e+00	0.000000e+00
0.000000e+00	0.000000e+00	0.000000e+00
0.000000e+00	0.000000e+00	0.000000e+00
0.000000e+00	0.000000e+00	0.000000e+00
0.000000e+00	0.000000e+00	0.000000e+00
0.000000e+00	0.000000e+00	0.000000e+00
0.000000e+00	0.000000e+00	0.000000e+00
0.000000e+00	0.000000e+00	0.000000e+00
0.000000e+00	0.000000e+00	0.000000e+00
0.000000e+00	0.000000e+00	0.000000e+00
0.000000e+00	0.000000e+00	0.000000e+00
0.000000e+00	0.000000e+00	0.000000e+00
0.000000e+00	0.000000e+00	0.000000e+00
0.000000e+00	0.000000e+00	0.000000e+00
0.000000e+00	0.000000e+00	0.000000e+00
0.000000e+00	0.000000e+00	0.000000e+00
0.000000e+00	0.000000e+00	0.000000e+00
0.000000e+00	0.000000e+00	0.000000e+00
0.000000e+00	0.000000e+00	0.000000e+00
0.000000e+00	0.000000e+00	0.000000e+00
0.000000e+00	0.000000e+00	0.000000e+00
0.000000e+00	0.000000e+00	0.000000e+00
0.000000e+00	0.000000e+00	0.000000e+00
0.000000e+00	0.000000e+00	0.000000e+00
0.000000e+00	0.000000e+00	0.000000e+00
0.000000e+00	0.000000e+00	0.000000e+00
0.000000e+00	0.000000e+00	0.000000e+00
0.000000e+00	0.000000e+00	0.000000e+00
0.000000e+00	0.000000e+00	0.000000e+00
0.000000e+00	0.000000e+00	0.000000e+00
0.000000e+00	0.000000e+00	0.000000e+00
0.000000e+00	0.000000e+00	0.000000e+00
0.000000e+00	0.000000e+00	0.000000e+00
0.000000e+00	0.000000e+00	0.000000e+00
0.000000e+00	0.000000e+00	0.000000e+00
0.000000e+00	0.000000e+00	0.000000e+00
0.000000e+00	0.000000e+00	0.000000e+00
0.000000e+00	0.000000e+00	0.000000e+00
0.000000e+00	0.000000e+00	0.000000e+00
0.000000e+00	0.000000e+00	0.000000e+00
0.000000e+00	0.000000e+00	0.000000e+00
0.000000e+00	0.000000e+00	0.000000e+00
0.000000e+00	0.000000e+00	0.000000e+00
0.000000e+00	0.000000e+00	0.000000e+00
0.000000e+00	0.000000e+00	0.000000e+00
0.000000e+00	0.000000e+00	0.000000e+00
0.000000e+00	0.000000e+00	0.000000e+00
0.000000e+00	0.000000e+00	0.000000e+00
0.000000e+00	0.000000e+00	0.000000e+00
0.000000e+00	0.000000e+00	0.000000e+00
0.000000e+00	0.000000e+00	0.000000e+00
0.000000e+00	0.000000e+00	0.000000e+00
0.000000e+00	0.000000e+00	0.000000e+00
0.000000e+00	0.000000e+00	0.000000e+00
0.000000e+00	0.000000e+00	0.000000e+00
0.000000e+00	0.000000e+00	0.000000e+00
0.000000e+00	0.000000e+00	0.000000e+00
0.000000e+00	0.000000e+00	0.000000e+00
0.000000e+00	0.000000e+00	0.000000e+00
0.000000e+00	0.000000e+00	0.000000e+00
0.000000e+00	0.000000e+00	0.000000e+00
0.000000e+00	0.000000e+00	0.000000e+00
0.000000e+00	0.000000e+00	0.000000e+00
0.000000e+00	0.000000e+00	0.000000e+00
0.000000e+00	0.000000e+00	0.000000e+00
0.000000e+00	0.000000e+00	0.000000e+00
0.000000e+00	0.000000e+00	0.000000e+00
0.000000e+00	0.000000e+00	0.000000e+00
0.000000e+00	0.000000e+00	0.000000e+00
0.000000e+00	0.000000e+00	0.000000e+00
0.000000e+00	0.000000e+00	0.000000e+00
0.000000e+00	0.000000e+00	0.000000e+00
0.000000e+00	0.000000e+00	0.000000e+00
0.000000e+00	0.000000e+00	0.000000e+00
0.000000e+00	0.000000e+00	0.000000e+00
0.000000e+00	0.000000e+00	0.000000e+00
0.000000e+00	0.000000e+00	0.000000e+00
0.000000e+00	0.000000e+00	0.000000e+00
0.000000e+00	0.000000e+00	0.000000e+00
0.000000e+00	0.000000e+00	0.000000e+00
0.000000e+00	0.000000e+00	0.000000e+00
0.000000e+00	0.000000e+00	0.000000e+00
0.000000e+00	0.000000e+00	0.000000e+00
0.000000e+00	0.000000e+00	0.000000e+00
0.000000e+00	0.000000e+00	0.000000e+00
0.000000e+00	0.000000e+00	0.000000e+00
0.000000e+00	0.000000e+00	0.000000e+00
0.000000e+00	0.000000e+00	0.000000e+00
0.000000e+00	0.000000e+00	0.000000e+00
0.000000e+00	0.000000e+00	0.000000e+00
0.000000e+00	0.000000e+00	0.000000e+00
0.000000e+00	0.000000e+00	0.000000e+00
0.000000e+00	0.000000e+00	0.000000e+00
0.000000e+00	0.000000e+00	0.000000e+00
0.000000e+00	0.000000e+00	0.000000e+00
0.000000e+00	0.000000e+00	0.000000e+00
0.000000e+00	0.000000e+00	0.000000e+00
0.000000e+00	0.000000e+00	0.000000e+00
0.000000e+00	0.000000e+00	0.000000e+00
0.000000e+00	0.000000e+00	0.000000e+00
0.000000e+00	0.000000e+00	0.000000e+00
0.000000e+00	0.000000e+00	0.000000e+00
0.000000e+00	0.000000e+00	0.000000e+00
0.000000e+00	0.000000e+00	0.000000e+00
0.000000e+00	0.000000e+00	0.000000e+00
0.000000e+00	0.000000e+00	0.000000e+00
0.000000e+00	0.000000e+00	0.000000e+00
0.000000e+00	0.000000e+00	0.000000e+00
0.000000e+00	0.000000e+00	0.000000e+00
0.000000e+00	0.000000e+00	0.000000e+00
0.000000e+00	0.000000e+00	0.000000e+00
0.000000e+00	0.000000e+00	0.000000e+00
0.000000e+00	0.000000e+00	0.000000e+00
0.000000e+00	0.000000e+00	0.000000e+00
0.000000e+00	0.000000e+00	0.000000e+00
0.000000e+00	0.000000e+00	0.000000e+00
0.000000e+00	0.000000e+00	0.000000e+00
0.000000e+00	0.000000e+00	0.000000e+00
0.000000e+00	0.000000e+00	0.000000e+00
0.000000e+00	0.000000e+00	0.000000e+00
0.000000e+00	0.000000e+00	0.000000e+00
0.000000e+00	0.000000e+00	0.000000e+00
0.000000e+00	0.000000e+00	0.000000e+00
0.000000e+00	0.000000e+00	0.000000e+00
0.000000e+00	0.000000e+00	0.000000e+00
0.000000e+00	0.000000e+00	0.000000e+00
0.000000e+00	0.000000e+00	0.000000e+00
0.000000e+00	0.000000e+00	0.000000e+00
0.000000e+00	0.000000e+00	0.000000e+00
0.000000e+00	0.000000e+00	0.000000e+00
0.000000e+00	0.000000e+00	0.000000e+00
0.000000e+00	0.000000e+00	0.000000e+00
0.000000e+00	0.000000e+00	0.000000e+00
0.000000e+00	0.000000e+00	0.000000e+00
0.000000e+00	0.000000e+00	0.000000e+00
0.000000e+00	0.000000e+00	0.000000e+00
0.000000e+00	0.000000e+00	0.000000e+00
0.000000e+00	0.000000e+00	0.000000e+00
0.000000e+00	0.000000e+00	0.000000e+00
0.000000e+00	0.000000e+00	0.000000e+00
0.000000e+00	0.000000e+00	0.000000e+00
0.000000e+00	0.000000e+00	0.000000e+00
0.000000e+00	0.000000e+00	0.000000e+00
0.000000e+00	0.000000e+00	0.000000e+00
0.000000e+00	0.000000e+00	0.000000e+00
0.000000e+00	0.000000e+00	0.000000e+00
0.000000e+00	0.000000e+00	0.000000e+00
0.000000e+00	0.000000e+00	0.000000e+00
0.000000e+00	0.000000e+00	0.000000e+00
0.000000e+00	0.000000e+00	0.000000e+00
0.000000e+00	0.000000e+00	0.000000e+00
0.000000e+00	0.000000e+00	0.000000e+00
0.000000e+00	0.000000e+00	0.000000e+00
0.000000e+00	0.000000e+00	0.000000e+00
0.000000e+00	0.000000e+00	0.000000e+00
0.000000e+00	0.000000e+00	0.000000e+00
0.000000e+00	0.000000e+00	0.000000e+00
0.000000e+00	0.000000e+00	0.000000e+00
0.000000e+00	0.000000e+00	0.000000e+00
0.000000e+00	0.000000e+00	0.000000e+00
0.000000e+00	0.000000e+00	0.000000e+00
0.000000e+00	0.000000e+00	0.000000e+00
0.000000e+00	0.000000e+00	0.000000e+00
0.000000e+00	0.000000e+00	0.000000e+00
0.000000e+00	0.000000e+00	0.000000e+00
0.000000e+00	0.000000e+00	0.000000e+00
0.000000e+00	0.000000e+00	0.000000e+00
0.000000e+00	0.000000e+00	0.000000e+00
0.000000e+00	0.000000e+00	0.000000e+00
0.000000e+00	0.000000e+00	0.000000e+00
0.000000e+00	0.000000e+00	0.000000e+00
0.000000e+00	0.000000e+00	0.000000e+00
0.000000e+00	0.000000e+00	0.000000e+00
0.000000e+00	0.000000e+00	0.000000e+00
0.000000e+00	0.000000e+00	0.000000e+00
0.000000e+00	0.000000e+00	0.000000e+00
0.000000e+00	0.000000e+00	0.000000e+00
0.000000e+00	0.000000e+00	0.000000e+00
0.000000e+00	0.000000e+00	0.000000e+00
0.000000e+00	0.000000e+00	0.000000e+00
0.000000e+00	0.000000e+00	0.000000e+00
0.000000e+00	0.000000e+00	0.000000e+00
0.000000e+00	0.000000e+00	0.000000e+00
0.000000e+00	0.000000e+00	0.000000e+00
0.000000e+00	0.000000e+00	0.000000e+00
0.000000e+00	0.000000e+00	0.000000e+00
0.000000e+00	0.000000e+00	0.000000e+00
0.000000e+00	0.000000e+00	0.000000e+00
0.000000e+00	0.000000e+00	0.000000e+00
0.000000e+00	0.000000e+00	0.000000e+00
0.000000e+00	0.000000e+00	0.000000e+00
0.000000e+00	0.000000e+00	0.000000e+00
0.000000e+00	0.000000e+00	0.000000e+00
0.000000e+00	0.000000e+00	0.000000e+00
0.000000e+00	0.000000e+00	0.000000e+00
0.000000e+00	0.000000e+00	0.000000e+00
0.000000e+00	0.000000e+00	0.000000e+00
0.000000e+00	0.000000e+00	0.000000e+00
0.000000e+00	0.000000e+00	0.000000e+00
0.000000e+00	0.000000e+00	0.000000e+00
0.000000e+00	0.000000e+00	0.000000e+00
0.000000e+00	0.000000e+00	0.000000e+00
0.000000e+00	0.000000e+00	0.000000e+00
0.000000e+00	0.000000e+00	0.000000e+00
0.000000e+00	0.000000e+00	0.000000e+00
0.000000e+00	0.000000e+00	0.000000e+00
0.000000e+00	0.000000e+00	0.000000e+00
0.000000e+00	0.000000e+00	0.000000e+00
0.000000e+00	0.000000e+00	0.000000e+00
0.000000e+00	0.000000e+00	0.000000e+00
0.000000e+00	0.000000e+00	0.000000e+00
0.000000e+00	0.000000e+00	0.000000e+00
0.000000e+00	0.000000e+00	0.000000e+00
0.000000e+00	0.000000e+00	0.000000e+00
0.000000e+00	0.000000e+00	0.000000e+00
0.000000e+00	0.000000e+00	0.000000e+00
0.000000e+00	0.000000e+00	0.000000e+00
0.000000e+00	0.000000e+00	0.000000e+00
0.000000e+00	0.000000e+00	0.000000e+00
0.000000e+00	0.000000e+00	0.000000e+00
0.000000e+00	0.000000e+00	0.000000e+00
0.000000e+00	0.000000e+00	0.000000e+00
0.000000e+00	0.000000e+00	0.000000e+00
0.000000e+00	0.000000e+00	0.000000e+00
0.000000e+00	0.000000e+00	0.000000e+00
0.000000e+00	0.000000e+00	0.000000e+00
0.000000e+00	0.000000e+00	0.000000e+00
0.000000e+00	0.000000e+00	0.000000e+00
0.000000e+00	0.000000e+00	0.000000e+00
0.000000e+00	0.000000e+00	0.000000e+00
0.000000e+00	0.000000e+00	0.000000e+00
0.000000e+00	0.000000e+00	0.000000e+00
0.000000e+00	0.000000e+00	0.000000e+00
0.000000e+00	0.000000e+00	0.000000e+00
0.000000e+00	0.000000e+00	0.000000e+00
0.000000e+00	0.000000e+00	0.000000e+00
0.000000e+00	0.000000e+00	0.000000e+00
0.000000e+00	0.000000e+00	0.000000e+00
0.000000e+00	0.000000e+00	0.000000e+00
0.000000e+00	0.000000e+00	0.000000e+00
0.000000e+00	0.000000e+00	0.000000e+00
0.000000e+00	0.000000e+00	0.000000e+00
0.000000e+00	0.000000e+00	0.000000e+00
0.000000e+00	0.000000e+00	0.000000e+00
0.000000e+00	0.000000e+00	0.000000e+00
0.000000e+00	0.000000e+00	0.000000e+00
0.000000e+00	0.000000e+00	0.000000e+00
0.000000e+00	0.000000e+00	0.000000e+00
0.000000e+00	0.000000e+00	0.000000e+00
0.000000e+00	0.000000e+00	0.000000e+00
0.000000e+00	0.000000e+00	0.000000e+00
0.000000e+00	0.000000e+00	0.000000e+00
0.000000e+00	0.000000e+00	0.000000e+00
0.000000e+00	0.000000e+00	0.000000e+00
0.000000e+00	0.000000e+00	0.000000e+00
0.000000e+00	0.000000e+00	0.000000e+00
0.000000e+00	0.000000e+00	0.000000e+00
0.000000e+00	0.000000e+00	0.000000e+00
0.000000e+00	0.000000e+00	0.000000e+00
0.000000e+00	0.000000e+00	0.000000e+00
0.000000e+00	0.000000e+00	0.000000e+00
0.000000e+00	0.000000e+00	0.000000e+00
0.000000e+00	0.000000e+00	0.000000e+00
0.000000e+00	0.000000e+00	0.000000e+00
0.000000e+00	0.000000e+00	0.000000e+00
0.000000e+00	0.000000e+00	0.000000e+00
0.000000e+00	0.000000e+00	0.000000e+00
0.000000e+00	0.000000e+00	0.000000e+00
0.000000e+00	0.000000e+00	0.000000e+00
0.000000e+00	0.000000e+00	0.000000e+00
0.000000e+00	0.000000e+00	0.000000e+00
0.000000e+00	0.000000e+00	0.000000e+00
0.000000e+00	0.000000e+00	0.000000e+00
0.000000e+00	0.000000e+00	0.000000e+00
0.000000e+00	0.000000e+00	0.000000e+00
0.000000e+00	0.000000e+00	0.000000e+00
0.000000e+00	0.000000e+00	0.000000e+00
0.000000e+00	0.000000e+00	0.000000e+00
0.000000e+00	0.000000e+00	0.000000e+00
0.000000e+00	0.000000e+00	0.000000e+00
0.000000e+00	0.000000e+00	0.000000e+00
0.000000e+00	0.000000e+00	0.000000e+00
0.000000e+00	0.000000e+00	0.000000e+00
0.000000e+00	0.000000e+00	0.000000e+00
0.000000e+00	0.000000e+00	0.000000e+00
0.000000e+00	0.000000e+00	0.000000e+00
0.000000e+00	0.000000e+00	0.000000e+00
0.000000e+00	0.000000e+00	0.000000e+00
0.000000e+00	0.000000e+00	0.000000e+00
0.000000e+00	0.000000e+00	0.000000e+00
0.000000e+00	0.000000e+00	0.000000e+00
0.000000e+00	0.000000e+00	0.000000e+00
0.000000e+00	0.000000e+00	0.000000e+00
0.000000e+00	0.000000e+00	0.000000e+00
0.000000e+00	0.000000e+00	0.000000e+00
0.000000e+00	0.000000e+00	0.000000e+00
0.000000e+00	0.000000e+00	0.000000e+00
0.000000e+00	0.000000e+00	0.000000e+00
0.000000e+00	0.000000e+00	0.000000e+00
0.000000e+00	0.000000e+00	0.000000e+00
0.000000e+00	0.000000e+00	0.000000e+00
0.000000e+00	0.000000e+00	0.000000e+00
0.000000e+00	0.000000e+00	0.000000e+00
0.000000e+00	0.000000e+00	0.000000e+00
0.000000e+00	0.000000e+00	0.000000e+00
0.000000e+00	0.000000e+00	0.000000e+00
0.000000e+00	0.000000e+00	0.000000e+00
0.000000e+00	0.000000e+00	0.000000e+00
0.000000e+00	0.000000e+00	0.000000e+00
0.000000e+00	0.000000e+00	0.000000e+00
0.000000e+00	0.000000e+00	0.000000e+00
0.000000e+00	0.000000e+00	0.000000e+00
0.000000e+00	0.000000e+00	0.000000e+00
0.000000e+00	0.000000e+00	0.000000e+00
0.000000e+00	0.000000e+00	0.000000e+00
0.000000e+00	0.000000e+00	0.000000e+00
0.000000e+00	0.000000e+00	0.000000e+00
0.000000e+00	0.000000e+00	0.000000e+00
0.000000e+00	0.000000e+00	0.000000e+00
0.000000e+00	0.000000e+00	0.000000e+00
0.000000e+00	0.000000e+00	0.000000e+00
0.000000e+00	0.000000e+00	0.000000e+00
0.000000e+00	0.000000e+00	0.000000e+00
0.000000e+00	0.000000e+00	0.000000e+00
0.000000e+00	0.000000e+00	0.000000e+00
0.000000e+00	0.000000e+00	0.000000e+00
0.000000e+00	0.000000e+00	0.000000e+00
0.000000e+00	0.000000e+00	0.000000e+00
0.000000e+00	0.000000e+00	0.000000e+00
0.000000e+00	0.000000e+00	0.000000e+00
0.000000e+00	0.000000e+00	0.000000e+00
0.000000e+00	0.000000e+00	0.000000e+00
0.000000e+00	0.000000e+00	0.000000e+00
0.000000e+00	0.000000e+00	0.000000e+00
0.000000e+00	0.000000e+00	0.000000e+00
0.000000e+00	0.000000e+00	0.000000e+00
0.000000e+00	0.000000e+00	0.000000e+00
0.000000e+00	0.000000e+00	0.000000e+00
0.000000e+00	0.000000e+00	0.000000e+00
0.000000e+00	0.000000e+00	0.000000e+00
0.000000e+00	0.000000e+00	0.000000e+00
0.000000e+00	0.000000e+00	0.000000e+00
0.000000e+00	0.000000e+00	0.000000e+00
0.000000e+00	0.000000e+00	0.000000e+00
0.000000e+00	0.000000e+00	0.000000e+00
0.000000e+00	0.000000e+00	0.000000e+00
0.000000e+00	0.000000e+00	0.000000e+00
0.000000e+00	0.000000e+00	0.000000e+00
0.000000e+00	0.000000e+00	0.000000e+00
0.000000e+00	0.000000e+00	0.000000e+00
0.000000e+00	0.000000e+00	0.000000e+00
0.000000e+00	0.000000e+00	0.000000e+00
0.000000e+00	0.000000e+00	0.000000e+00
0.000000e+00	0.000000e+00	0.000000e+00
0.000000e+00	0.000000e+00	0.000000e+00
0.000000e+00	0.000000e+00	0.000000e+00
0.000000e+00	0.000000e+00	0.000000e+00
0.000000e+00	0.000000e+00	0.000000e+00
0.000000e+00	0.000000e+00	0.000000e+00
0.000000e+00	0.000000e+00	0.000000e+00
0.000000e+00	0.000000e+00	0.000000e+00
0.000000e+00	0.000000e+00	0.000000e+00
0.000000e+00	0.000000e+00	0.000000e+00
0.000000e+00	0.000000e+00	0.000000e+00
0.000000e+00	0.000000e+00	0.000000e+00
0.000000e+00	0.000000e+00	0.000000e+00
0.000000e+00	0.000000e+00	0.000000e+00
0.000000e+00	0.000000e+00	0.000000e+00
0.000000e+00	0.000000e+00	0.000000e+00
0.000000e+00	0.000000e+00	0.000000e+00
0.000000e+00	0.000000e+00	0.000000e+00
0.000000e+00	0.000000e+00	0.000000e+00
0.000000e+00	0.000000e+00	0.000000e+00
0.000000e+00	0.000000e+00	0.000000e+00
0.000000e+00	0.000000e+00	0.000000e+00
0.000000e+00	0.000000e+00	0.000000e+00
0.000000e+00	0.000000e+00	0.000000e+00
0.000000e+00	0.000000e+00	0.000000e+00
0.000000e+00	0.000000e+00	0.000000e+00
0.000000e+00	0.000000e+00	0.000000e+00
0.000000e+00	0.000000e+00	0.000000e+00
0.000000e+00	0.000000e+00	0.000000e+00
0.000000e+00	0.000000e+00	0.000000e+00
0.000000e+00	0.000000e+00	0.000000e+00
0.000000e+00	0.000000e+00	0.000000e+00
0.000000e+00	0.000000e+00	0.000000e+00
0.000000e+00	0.000000e+00	0.000000e+00
0.000000e+00	0.000000e+00	0.000000e+00
0.000000e+00	0.000000e+00	0.000000e+00
0.000000e+00	0.000000e+00	0.000000e+00
0.000000e+00	0.000000e+00	0.000000e+00
0.000000e+00	0.000000e+00	0.000000e+00
0.000000e+00	0.000000e+00	0.000000e+00
0.000000e+00	0.000000e+00	0.000000e+00
0.000000e+00	0.000000e+00	0.000000e+00
0.000000e+00	0.000000e+00	0.000000e+00
0.000000e+00	0.000000e+00	0.000000e+00
0.000000e+00	0.000000e+00	0.000000e+00
0.000000e+00	0.000000e+00	0.000000e+00
0.000000e+00	0.000000e+00	0.000000e+00
0.000000e+00	0.000000e+00	0.000000e+00
0.000000e+00	0.000000e+00	0.000000e+00
0.000000e+00	0.000000e+00	0.000000e+00
0.000000e+00	0.000000e+00	0.000000e+00
0.000000e+00	0.000000e+00	0.000000e+00
0.000000e+00	0.000000e+00	0.000000e+00
0.000000e+00	0.000000e+00	0.000000e+00
0.000000e+00	0.000000e+00	0.000000e+00
0.000000e+00	0.000000e+00	0.000000e+00
0.000000e+00	0.000000e+00	0.000000e+00
0.000000e+00	0.000000e+00	0.000000e+00
0.000000e+00	0.000000e+00	0.000000e+00
0.000000e+00	0.000000e+00	0.000000e+00
0.000000e+00	0.000000e+00	0.000000e+00
0.000000e+00	0.000000e+00	0.000000e+00
0.000000e+00	0.000000e+00	0.000000e+00
0.000000e+00	0.000000e+00	0.000000e+00
0.000000e+00	0.000000e+00	0.000000e+00
0.000000e+00	0.000000e+00	0.000000e+00
0.000000e+00	0.000000e+00	0.000000e+00
0.000000e+00	0.000000e+00	0.000000e+00
0.000000e+00	0.000000e+00	0.000000e+00
0.000000e+00	0.000000e+00	0.000000e+00
0.000000e+00	0.000000e+00	0.000000e+00
0.000000e+00	0.000000e+00	0.000000e+00
0.000000e+00	0.000000e+00	0.000000e+00
0.000000e+00	0.000000e+00	0.000000e+00
0.000000e+00	0.000000e+00	0.000000e+00
0.000000e+00	0.000000e+00	0.000000e+00
0.000000e+00	0.000000e+00	0.000000e+00
0.000000e+00	0.000000e+00	0.000000e+00
0.000000e+00	0.000000e+00	0.000000e+00
0.000000e+00	0.000000e+00	0.000000e+00
0.000000e+00	0.000000e+00	0.000000e+00
0.000000e+00	0.000000e+00	0.000000e+00
0.000000e+00	0.000000e+00	0.000000e+00
0.000000e+00	0.000000e+00	0.000000e+00
0.000000e+00	0.000000e+00	0.000000e+00
0.000000e+00	0.000000e+00	0.000000e+00
0.000000e+00	0.000000e+00	0.000000e+00
0.000000e+00	0.000000e+00	0.000000e+00
0.000000e+00	0.000000e+00	0.000000e+00
0.000000e+00	0.000000e+00	0.000000e+00
0.000000e+00	0.000000e+00	0.000000e+00
0.000000e+00	0.000000e+00	0.000000e+00
0.000000e+00	0.000000e+00	0.000000e+00
0.000000e+00	0.000000e+00	0.000000e+00
0.000000e+00	0.000000e+00	0.000000e+00
0.000000e+00	0.000000e+00	0.000000e+00
0.000000e+00	0.000000e+00	0.000000e+00
0.000000e+00	0.000000e+00	0.000000e+00
0.000000e+00	0.000000e+00	0.000000e+00
0.000000e+00	0.000000e+00	0.000000e+00
0.000000e+00	0.000000e+00	0.000000e+00
0.000000e+00	0.000000e+00	0.000000e+00
0.000000e+00	0.000000e+00	0.000000e+00
0.000000e+00	0.000000e+00	0.000000e+00
0.000000e+00	0.000000e+00	0.000000e+00
0.000000e+00	0.000000e+00	0.000000e+00
0.000000e+00	0.000000e+00	0.000000e+00
0.000000e+00	0.000000e+00	0.000000e+00
0.000000e+00	0.000000e+00	0.000000e+00
0.000000e+00	0.000000e+00	0.000000e+00
0.000000e+00	0.000000e+00	0.000000e+00
0.000000e+00	0.000000e+00	0.000000e+00
0.000000e+00	0.000000e+00	0.000000e+00
0.000000e+00	0.000000e+00	0.000000e+00
0.000000e+00	0.000000e+00	0.000000e+00
0.000000e+00	0.000000e+00	0.000000e+00
0.000000e+00	0.000000e+00	0.000000e+00
0.000000e+00	0.000000e+00	0.000000e+00
0.000000e+00	0.000000e+00	0.000000e+00
0.000000e+00	0.000000e+00	0.000000e+00
0.000000e+00	0.000000e+00	0.000000e+00
0.000000e+00	0.000000e+00	0.000000e+00
0.000000e+00	0.000000e+00	0.000000e+00
0.000000e+00	0.000000e+00	0.000000e+00
0.000000e+00	0.000000e+00	0.000000e+00
0.000000e+00	0.000000e+00	0.000000e+00
0.000000e+00	0.000000e+00	0.000000e+00
0.000000e+00	0.000000e+00	0.000000e+00
0.000000e+00	0.000000e+00	0.000000e+00
0.000000e+00	0.000000e+00	0.000000e+00
0.000000e+00	0.000000e+00	0.000000e+00
0.000000e+00	0.000000e+00	0.000000e+00
0.000000e+00	0.000000e+00	0.000000e+00
0.000000e+00	0.000000e+00	0.000000e+00
0.000000e+00	0.000000e+00	0.000000e+00
0.000000e+00	0.000000e+00	0.000000e+00
0.000000e+00	0.000000e+00	0.000000e+00
0.000000e+00	0.000000e+00	0.000000e+00
0.000000e+00	0.000000e+00	0.000000e+00
0.000000e+00	0.000000e+00	0.000000e+00
0.000000e+00	0.000000e+00	0.000000e+00
0.000000e+00	0.000000e+00	0.000000e+00
0.000000e+00	0.000000e+00	0.000000e+00
0.000000e+00	0.000000e+00	0.000000e+00
0.000000e+00	0.000000e+00	0.000000e+00
0.000000e+00	0.000000e+00	0.000000e+00
0.000000e+00	0.000000e+00	0.000000e+00
0.000000e+00	0.000000e+00	0.000000e+00
0.000000e+00	0.000000e+00	0.000000e+00
0.000000e+00	0.000000e+00	0.000000e+00
0.000000e+00	0.000000e+00	0.000000e+00
0.000000e+00	0.000000e+00	0.000000e+00
0.000000e+00	0.000000e+00	0.000000e+00
0.000000e+00	0.000000e+00	0.000000e+00
0.000000e+00	0.000000e+00	0.000000e+00
0.000000e+00	0.000000e+00	0.000000e+00
0.000000e+00	0.000000e+00	0.000000e+00
0.000000e+00	0.000000e+00	0.000000e+00
0.000000e+00	0.000000e+00	0.000000e+00
0.000000e+00	0.000000e+00	0.000000e+00
0.000000e+00	0.000000e+00	0.000000e+00
0.000000e+00	0.000000e+00	0.000000e+00
0.000000e+00	0.000000e+00	0.000000e+00
0.000000e+00	0.000000e+00	0.000000e+00
0.000000e+00	0.000000e+00	0.000000e+00
0.000000e+00	0.000000e+00	0.000000e+00
0.000000e+00	0.000000e+00	0.000000e+00
0.000000e+00	0.000000e+00	0.000000e+00
0.000000e+00	0.000000e+00	0.000000e+00
0.000000e+00	0.000000e+00	0.000000e+00
0.000000e+00	0.000000e+00	0.000000e+00
0.000000e+00	0.000000e+00	0.000000e+00
0.000000e+00	0.000000e+00	0.000000e+00
0.000000e+00	0.000000e+00	0.000000e+00
0.000000e+00	0.000000e+00	0.000000e+00
0.000000e+00	0.000000e+00	0.000000e+00
0.000000e+00	0.000000e+00	0.000000e+00
0.000000e+00	0.000000e+00	0.000000e+00
0.000000e+00	0.000000e+00	0.000000e+00
0.000000e+00	0.000000e+00	0.000000e+00
0.000000e+00	0.000000e+00	0.000000e+00
0.000000e+00	0.000000e+00	0.000000e+00
0.000000e+00	0.000000e+00	0.000000e+00
0.000000e+00	0.000000e+00	0.000000e+00
0.000000e+00	0.000000e+00	0.000000e+00
0.000000e+00	0.000000e+00	0.000000e+00
0.000000e+00	0.000000e+00	0.000000e+00
0.000000e+00	0.000000e+00	0.000000e+00
0.000000e+00	0.000000e+00	0.000000e+00
0.000000e+00	0.000000e+00	0.000000e+00
0.000000e+00	0.000000e+00	0.000000e+00
0.000000e+00	0.000000e+00	0.000000e+00
0.000000e+00	0.000000e+00	0.000000e+00
0.000000e+00	0.000000e+00	0.000000e+00
0.000000e+00	0.000000e+00	0.000000e+00
0.000000e+00	0.000000e+00	0.000000e+00
0.000000e+00	0.000000e+00	0.000000e+00
0.000000e+00	0.000000e+00	0.000000e+00
0.000000e+00	0.000000e+00	0.000000e+00
0.000000e+00	0.000000e+00	0.000000e+00
0.000000e+00	0.000000e+00	0.000000e+00
0.000000e+00	0.000000e+00	0.000000e+00
0.000000e+00	0.000000e+00	0.000000e+00
0.000000e+00	0.000000e+00	0.000000e+00
0.000000e+00	0.000000e+00	0.000000e+00
0.000000e+00	0.000000e+00	0.000000e+00
0.000000e+00	0.000000e+00	0.000000e+00
0.000000e+00	0.000000e+00	0.000000e+00
0.000000e+00	0.000000e+00	0.000000e+00
0.000000e+00	0.000000e+00	0.000000e+00
0.000000e+00	0.000000e+00	0.000000e+00
0.000000e+00	0.000000e+00	0.000000e+00
0.000000e+00	0.000000e+00	0.000000e+00
0.000000e+00	0.000000e+00	0.000000e+00
0.000000e+00	0.000000e+00	0.000000e+00
0.000000e+00	0.000000e+00	0.000000e+00
0.000000e+00	0.000000e+00	0.000000e+00
0.000000e+00	0.000000e+00	0.000000e+00
0.000000e+00	0.000000e+00	0.000000e+00
0.000000e+00	0.000000e+00	0.000000e+00
0.000000e+00	0.000000e+00	0.000000e+00
0.000000e+00	0.000000e+00	0.000000e+00
0.000000e+00	0.000000e+00	0.000000e+00
0.000000e+00	0.000000e+00	0.000000e+00
0.000000e+00	0.000000e+00	0.000000e+00
0.000000e+00	0.000000e+00	0.000000e+00
0.000000e+00	0.000000e+00	0.000000e+00
0.000000e+00	0.000000e+00	0.000000e+00
0.000000e+00	0.000000e+00	0.000000e+00
0.000000e+00	0.000000e+00	0.000000e+00
0.000000e+00	0.000000e+00	0.000000e+00
0.000000e+00	0.000000e+00	0.000000e+00
0.000000e+00	0.000000e+00	0.000000e+00
0.000000e+00	0.000000e+00	0.000000e+00
0.000000e+00	0.000000e+00	0.000000e+00
0.000000e+00	0.000000e+00	0.000000e+00
0.000000e+00	0.000000e+00	0.000000e+00
0.000000e+00	0.000000e+00	0.000000e+00
0.000000e+00	0.000000e+00	0.000000e+00
0.000000e+00	0.000000e+00	0.000000e+00
0.000000e+00	0.000000e+00	0.000000e+00
0.000000e+00	0.000000e+00	0.000000e+00
0.000000e+00	0.000000e+00	0.000000e+00
0.000000e+00	0.000000e+00	0.000000e+00
0.000000e+00	0.000000e+00	0.000000e+00
0.000000e+00	0.000000e+00	0.000000e+00
0.000000e+00	0.000000e+00	0.000000e+00
0.000000e+00	0.000000e+00	0.000000e+00
0.000000e+00	0.000000e+00	0.000000e+00
0.000000e+00	0.000000e+00	0.000000e+00
0.000000e+00	0.000000e+00	0.000000e+00
0.000000e+00	0.000000e+00	0.000000e+00
0.000000e+00	0.000000e+00	0.000000e+00
0.000000e+00	0.000000e+00	0.000000e+00
0.000000e+00	0.000000e+00	0.000000e+00
0.000000e+00	0.000000e+00	0.000000e+00
0.000000e+00	0.000000e+00	0.000000e+00
0.000000e+00	0.000000e+00	0.000000e+00
0.000000e+00	0.000000e+00	0.000000e+00
0.000000e+00	0.000000e+00	0.000000e+00
0.000000e+00	0.000000e+00	0.000000e+00
0.000000e+00	0.000000e+00	0.000000e+00
0.000000e+00	0.000000e+00	0.000000e+00
0.000000e+00	0.000000e+00	0.000000e+00
0.000000e+00	0.000000e+00	0.000000e+00
0.000000e+00	0.000000e+00	0.000000e+00
0.000000e+00	0.000000e+00	0.000000e+00
0.000000e+00	0.000000e+00	0.000000e+00
0.000000e+00	0.000000e+00	0.000000e+00
0.000000e+00	0.000000e+00	0.000000e+00
0.000000e+00	0.000000e+00	0.000000e+00
0.000000e+00	0.000000e+00	0.000000e+00
0.000000e+00	0.000000e+00	0.000000e+00
0.000000e+00	0.000000e+00	0.000000e+00
0.000000e+00	0.000000e+00	0.000000e+00
0.000000e+00	0.000000e+00	0.000000e+00
0.000000e+00	0.000000e+00	0.000000e+00
0.000000e+00	0.000000e+00	0.000000e+00
0.000000e+00	0.000000e+00	0.000000e+00
0.000000e+00	0.000000e+00	0.000000e+00
0.000000e+00	0.000000e+00	0.000000e+00
0.000000e+00	0.000000e+00	0.000000e+00
0.000000e+00	0.000000e+00	0.000000e+00
0.000000e+00	0.000000e+00	0.000000e+00
0.000000e+00	0.000000e+00	0.000000e+00
0.000000e+00	0.000000e+00	0.000000e+00
0.000000e+00	0.000000e+00	0.000000e+00
0.000000e+00	0.000000e+00	0.000000e+00
0.000000e+00	0.000000e+00	0.000000e+00
0.000000e+00	0.000000e+00	0.000000e+00
0.000000e+00	0.000000e+00	0.000000e+00
0.000000e+00	0.000000e+00	0.000000e+00
0.000000e+00	0.000000e+00	0.000000e+00
0.000000e+00	0.000000e+00	0.000000e+00
0.000000e+00	0.000000e+00	0.000000e+00
0.000000e+00	0.000000e+00	0.000000e+00
0.000000e+00	0.000000e+00	0.000000e+00
0.000000e+00	0.000000e+00	0.000000e+00
0.000000e+00	0.000000e+00	0.000000e+00
0.000000e+00	0.000000e+00	0.000000e+00
0.000000e+00	0.000000e+00	0.000000e+00
0.000000e+00	0.000000e+00	0.000000e+00
0.000000e+00	0.000000e+00	0.000000e+00
0.000000e+00	0.000000e+00	0.000000e+00
0.000000e+00	0.000000e+00	0.000000e+00
0.000000e+00	0.000000e+00	0.000000e+00
0.000000e+00	0.000000e+00	0.000000e+00
0.000000e+00	0.000000e+00	0.000000e+00
0.000000e+00	0.000000e+00	0.000000e+00
0.000000e+00	0.000000e+00	0.000000e+00
0.000000e+00	0.000000e+00	0.000000e+00
0.000000e+00	0.000000e+00	0.000000e+00
0.000000e+00	0.000000e+00	0.000000e+00
0.000000e+00	0.000000e+00	0.000000e+00
0.000000e+00	0.000000e+00	0.000000e+00
0.000000e+00	0.000000e+00	0.000000e+00
0.000000e+00	0.000000e+00	0.000000e+00
0.000000e+00	0.000000e+00	0.000000e+00
0.000000e+00	0.000000e+00	0.000000e+00
0.000000e+00	0.000000e+00	0.000000e+00
0.000000e+00	0.000000e+00	0.000000e+00
0.000000e+00	0.000000e+00	0.000000e+00
0.000000e+00	0.000000e+00	0.000000e+00
0.000000e+00	0.000000e+00	0.000000e+00
0.000000e+00	0.000000e+00	0.000000e+00
0.000000e+00	0.000000e+00	0.000000e+00
0.000000e+00	0.000000e+00	0.000000e+00
0.000000e+00	0.000000e+00	0.000000e+00
0.000000e+00	0.000000e+00	0.000000e+00
0.000000e+00	0.000000e+00	0.000000e+00
0.000000e+00	0.000000e+00	0.000000e+00
0.000000e+00	0.000000e+00	0.000000e+00
0.000000e+00	0.000000e+00	0.000000e+00
0.000000e+00	0.000000e+00	0.000000e+00
0.000000e+00	0.000000e+00	0.000000e+00
0.000000e+00	0.000000e+00	0.000000e+00
0.000000e+00	0.000000e+00	0.000000e+00
0.000000e+00	0.000000e+00	0.000000e+00
0.000000e+00	0.000000e+00	0.000000e+00
0.000000e+00	0.000000e+00	0.000000e+00
0.000000e+00	0.000000e+00	0.000000e+00
0.000000e+00	0.000000e+00	0.000000e+00
0.000000e+00	0.000000e+00	0.000000e+00
0.000000e+00	0.000000e+00	0.000000e+00
0.000000e+00	0.000000e+00	0.000000e+00
0.000000e+00	0.000000e+00	0.000000e+00
0.000000e+00	0.000000e+00	0.000000e+00
0.000000e+00	0.000000e+00	0.000000e+00
0.000000e+00	0.000000e+00	0.000000e+00
0.000000e+00	0.000000e+00	0.000000e+00
0.000000e+00	0.000000e+00	0.000000e+00
0.000000e+00	0.000000e+00	0.000000e+00
0.000000e+00	0.000000e+00	0.000000e+00
0.000000e+00	0.000000e+00	0.000000e+00
0.000000e+00	0.000000e+00	0.000000e+00
0.000000e+00	0.000000e+00	0.000000e+00
0.000000e+00	0.000000e+00	0.000000e+00
0.000000e+00	0.000000e+00	0.000000e+00
0.000000e+00	0.000000e+00	0.000000e+00
0.000000e+00	0.000000e+00	0.000000e+00
0.000000e+00	0.000000e+00	0.000000e+00
0.000000e+00	0.000000e+00	0.000000e+00
0.000000e+00	0.000000e+00	0.000000e+00
0.000000e+00	0.000000e+00	0.000000e+00
0.000000e+00	0.000000e+00	0.000000e+00
0.000000e+00	0.000000e+00	0.000000e+00
0.000000e+00	0.000000e+00	0.000000e+00
0.000000e+00	0.000000e+00	0.000000e+00
0.000000e+00	0.000000e+00	0.000000e+00
0.000000e+00	0.000000e+00	0.000000e+00
0.000000e+00	0.000000e+00	0.000000e+00
0.000000e+00	0.000000e+00	0.000000e+00
0.000000e+00	0.000000e+00	0.000000e+00
0.000000e+00	0.000000e+00	0.000000e+00
0.000000e+00	0.000000e+00	0.000000e+00
0.000000e+00	0.000000e+00	0.000000e+00
0.000000e+00	0.000000e+00	0.000000e+00
0.000000e+00	0.000000e+00	0.000000e+00
0.000000e+00	0.000000e+00	0.000000e+00
0.000000e+00	0.000000e+00	0.000000e+00
0.000000e+00	0.000000e+00	0.000000e+00
0.000000e+00	0.000000e+00	0.000000e+00
0.000000e+00	0.000000e+00	0.000000e+00
0.000000e+00	0.000000e+00	0.000000e+00
0.000000e+00	0.000000e+00	0.000000e+00
0.000000e+00	0.000000e+00	0.000000e+00
0.000000e+00	0.000000e+00	0.000000e+00
0.000000e+00	0.000000e+00	0.000000e+00
0.000000e+00	0.000000e+00	0.000000e+00
0.000000e+00	0.000000e+00	0.000000e+00
0.000000e+00	0.000000e+00	0.000000e+00
0.000000e+00	0.000000e+00	0.000000e+00
0.000000e+00	0.000000e+00	0.000000e+00
0.000000e+00	0.000000e+00	0.000000e+00
0.000000e+00	0.000000e+00	0.000000e+00
0.000000e+00	0.000000e+00	0.000000e+00
0.000000e+00	0.000000e+00	0.000000e+00
0.000000e+00	0.000000e+00	0.000000e+00
0.000000e+00	0.000000e+00	0.000000e+00
0.000000e+00	0.000000e+00	0.000000e+00
0.000000e+00	0.000000e+00	0.000000e+00
0.000000e+00	0.000000e+00	0.000000e+00
0.000000e+00	0.000000e+00	0.000000e+00
0.000000e+00	0.000000e+00	0.000000e+00
0.000000e+00	0.000000e+00	0.000000e+00
0.000000e+00	0.000000e+00	0.000000e+00
0.000000e+00	0.000000e+00	0.000000e+00
0.000000e+00	0.000000e+00	0.000000e+00
0.000000e+00	0.000000e+00	0.000000e+00
0.000000e+00	0.000000e+00	0.000000e+00
0.000000e+00	0.000000e+00	0.000000e+00
0.000000e+00	0.000000e+00	0.000000e+00
0.000000e+00	0.000000e+00	0.000000e+00
0.000000e+00	0.000000e+00	0.000000e+00
0.000000e+00	0.000000e+00	0.000000e+00
0.000000e+00	0.000000e+00	0.000000e+00
0.000000e+00	0.000000e+00	0.000000e+00
0.000000e+00	0.000000e+00	0.000000e+00
0.000000e+00	0.000000e+00	0.000000e+00
0.000000e+00	0.000000e+00	0.000000e+00
0.000000e+00	0.000000e+00	0.000000e+00
0.000000e+00	0.000000e+00	0.000000e+00
0.000000e+00	0.000000e+00	0.000000e+00
0.000000e+00	0.000000e+00	0.000000e+00
0.000000e+00	0.000000e+00	0.000000e+00
0.000000e+00	0.000000e+00	0.000000e+00
0.000000e+00	0.000000e+00	0.000000e+00
0.000000e+00	0.000000e+00	0.000000e+00
0.000000e+00	0.000000e+00	0.000000e+00
0.000000e+00	0.000000e+00	0.000000e+00
0.000000e+00	0.000000e+00	0.000000e+00
0.000000e+00	0.000000e+00	0.000000e+00
0.000000e+00	0.000000e+00	0.000000e+00
0.000000e+00	0.000000e+00	0.000000e+00
0.000000e+00	0.000000e+00	0.000000e+00
0.000000e+00	0.000000e+00	0.000000e+00
0.000000e+00	0.000000e+00	0.000000e+00
0.000000e+00	0.000000e+00	0.000000e+00
0.000000e+00	0.000000e+00	0.000000e+00
0.000000e+00	0.000000e+00	0.000000e+00
0.000000e+00	0.000000e+00	0.000000e+00
0.000000e+00	0.000000e+00	0.000000e+00
0.000000e+00	0.000000e+00	0.000000e+00
0.000000e+00	0.000000e+00	0.000000e+00
0.000000e+00	0.000000e+00	0.000000e+00
0.000000e+00	0.000000e+00	0.000000e+00
0.000000e+00	0.000000e+00	0.000000e+00
0.000000e+00	0.000000e+00	0.000000e+00
0.000000e+00	0.000000e+00	0.000000e+00
0.000000e+00	0.000000e+00	0.000000e+00
0.000000e+00	0.000000e+00	0.000000e+00
0.000000e+00	0.000000e+00	0.000000e+00
0.000000e+00	0.000000e+00	0.000000e+00
0.000000e+00	0.000000e+00	0.000000e+00
0.000000e+00	0.000000e+00	0.000000e+00
0.000000e+00	0.000000e+00	0.000000e+00
0.000000e+00	0.000000e+00	0.000000e+00
0.000000e+00	0.000000e+00	0.000000e+00
0.000000e+00	0.000000e+00	0.000000e+00
0.000000e+00	0.000000e+00	0.000000e+00
0.000000e+00	0.000000e+00	0.000000e+00
0.000000e+00	0.000000e+00	0.000000e+00
0.000000e+00	0.000000e+00	0.000000e+00
0.000000e+00	0.000000e+00	0.000000e+00
0.000000e+00	0.000000e+00	0.000000e+00
0.000000e+00	0.000000e+00	0.000000e+00
0.000000e+00	0.000000e+00	0.000000e+00
0.000000e+00	0.000000e+00	0.000000e+00
0.000000e+00	0.000000e+00	0.000000e+00
0.000000e+00	0.000000e+00	0.000000e+00
0.000000e+00	0.000000e+00	0.000000e+00
0.000000e+00	0.000000e+00	0.000000e+00
0.000000e+00	0.000000e+00	0.000000e+00
0.000000e+00	0.000000e+00	0.000000e+00
0.000000e+00	0.000000e+00	0.000000e+00
0.000000e+00	0.000000e+00	0.000000e+00
0.000000e+00	0.000000e+00	0.000000e+00
0.000000e+00	0.000000e+00	0.000000e+00
0.000000e+00	0.000000e+00	0.000000e+00
0.000000e+00	0.000000e+00	0.000000e+00
0.000000e+00	0.000000e+00	0.000000e+00
0.000000e+00	0.000000e+00	0.000000e+00
0.000000e+00	0.000000e+00	0.000000e+00
0.000000e+00	0.000000e+00	0.000000e+00
0.000000e+00	0.000000e+00	0.000000e+00
0.000000e+00	0.000000e+00	0.000000e+00
0.000000e+00	0.000000e+00	0.000000e+00
0.000000e+00	0.000000e+00	0.000000e+00
0.000000e+00	0.000000e+00	0.000000e+00
0.000000e+00	0.000000e+00	0.000000e+00
0.000000e+00	0.000000e+00	0.000000e+00
0.000000e+00	0.000000e+00	0.000000e+00
0.000000e+00	0.000000e+00	0.000000e+00
0.000000e+00	0.000000e+00	0.000000e+00
0.000000e+00	0.000000e+00	0.000000e+00
0.000000e+00	0.000000e+00	0.000000e+00
0.000000e+00	0.000000e+00	0.000000e+00
0.000000e+00	0.000000e+00	0.000000e+00
0.000000e+00	0.000000e+00	0.000000e+00
0.000000e+00	0.000000e+00	0.000000e+00
0.000000e+00	0.000000e+00	0.000000e+00
0.000000e+00	0.000000e+00	0.000000e+00
0.000000e+00	0.000000e+00	0.000000e+00
0.000000e+00	0.000000e+00	0.000000e+00
0.000000e+00	0.000000e+00	0.000000e+00
0.000000e+00	0.000000e+00	0.000000e+00
0.000000e+00	0.000000e+00	0.000000e+00
0.000000e+00	0.000000e+00	0.000000e+00
0.000000e+00	0.000000e+00	0.000000e+00
0.000000e+00	0.000000e+00	0.000000e+00
0.000000e+00	0.000000e+00	0.000000e+00
0.000000e+00	0.000000e+00	0.000000e+00
0.000000e+00	0.000000e+00	0.000000e+00
0.000000e+00	0.000000e+00	0.000000e+00
0.000000e+00	0.000000e+00	0.000000e+00
0.000000e+00	0.000000e+00	0.000000e+00
0.000000e+00	0.000000e+00	0.000000e+00
0.000000e+00	0.000000e+00	0.000000e+00
0.000000e+00	0.000000e+00	0.000000e+00
0.000000e+00	0.000000e+00	0.000000e+00
0.000000e+00	0.000000e+00	0.000000e+00
0.000000e+00	0.000000e+00	0.000000e+00
0.000000e+00	0.000000e+00	0.000000e+00
0.000000e+00	0.000000e+00	0.000000e+00
0.000000e+00	0.000000e+00	0.000000e+00
0.000000e+00	0.000000e+00	0.000000e+00
0.000000e+00	0.000000e+00	0.000000e+00
0.000000e+00	0.000000e+00	0.000000e+00
0.000000e+00	0.000000e+00	0.000000e+00
0.000000e+00	0.000000e+00	0.000000e+00
0.000000e+00	0.000000e+00	0.000000e+00
0.000000e+00	0.000000e+00	0.000000e+00
0.000000e+00	0.000000e+00	0.000000e+00
0.000000e+00	0.000000e+00	0.000000e+00
0.000000e+00	0.000000e+00	0.000000e+00
0.000000e+00	0.000000e+00	0.000000e+00
0.000000e+00	0.000000e+00	0.000000e+00
0.000000e+00	0.000000e+00	0.000000e+00
0.000000e+00	0.000000e+00	0.000000e+00
0.000000e+00	0.000000e+00	0.000000e+00
0.000000e+00	0.000000e+00	0.000000e+00
0.000000e+00	0.000000e+00	0.000000e+00
0.000000e+00	0.000000e+00	0.000000e+00
0.000000e+00	0.000000e+00	0.000000e+00
0.000000e+00	0.000000e+00	0.000000e+00
0.000000e+00	0.000000e+00	0.000000e+00
0.000000e+00	0.000000e+00	0.000000e+00
0.000000e+00	0.000000e+00	0.000000e+00
0.000000e+00	0.000000e+00	0.000000e+00
0.000000e+00	0.000000e+00	0.000000e+00
0.000000e+00	0.000000e+00	0.000000e+00
0.000000e+00	0.000000e+00	0.000000e+00
0.000000e+00	0.000000e+00	0.000000e+00
0.000000e+00	0.000000e+00	0.000000e+00
0.000000e+00	0.000000e+00	0.000000e+00
0.000000e+00	0.000000e+00	0.000000e+00
0.000000e+00	0.000000e+00	0.000000e+00
0.000000e+00	0.000000e+00	0.000000e+00
0.000000e+00	0.000000e+00	0.000000e+00
0.000000e+00	0.000000e+00	0.000000e+00
0.000000e+00	0.000000e+00	0.000000e+00
0.000000e+00	0.000000e+00	0.000000e+00
0.000000e+00	0.000000e+00	0.000000e+00
0.000000e+00	0.000000e+00	0.000000e+00
0.000000e+00	0.000000e+00	0.000000e+00
0.000000e+00	0.000000e+00	0.000000e+00
0.000000e+00	0.000000e+00	0.000000e+00
0.000000e+00	0.000000e+00	0.000000e+00
0.000000e+00	0.000000e+00	0.000000e+00
0.000000e+00	0.000000e+00	0.000000e+00
0.000000e+00	0.000000e+00	0.000000e+00
0.000000e+00	0.000000e+00	0.000000e+00
0.000000e+00	0.000000e+00	0.000000e+00
0.000000e+00	0.000000e+00	0.000000e+00
0.000000e+00	0.000000e+00	0.000000e+00
0.000000e+00	0.000000e+00	0.000000e+00
0.000000e+00	0.000000e+00	0.000000e+00
0.000000e+00	0.000000e+00	0.000000e+00
0.000000e+00	0.000000e+00	0.000000e+00
0.000000e+00	0.000000e+00	0.000000e+00
0.000000e+00	0.000000e+00	0.000000e+00
0.000000e+00	0.000000e+00	0.000000e+00
0.000000e+00	0.000000e+00	0.000000e+00
0.000000e+00	0.000000e+00	0.000000e+00
0.000000e+00	0.000000e+00	0.000000e+00
0.000000e+00	0.000000e+00	0.000000e+00
0.000000e+00	0.000000e+00	0.000000e+00
0.000000e+00	0.000000e+00	0.000000e+00
0.000000e+00	0.000000e+00	0.000000e+00
0.000000e+00	0.000000e+00	0.000000e+00
0.000000e+00	0.000000e+00	0.000000e+00
0.000000e+00	0.000000e+00	0.000000e+00
0.000000e+00	0.000000e+00	0.000000e+00
0.000000e+00	0.000000e+00	0.000000e+00
0.000000e+00	0.000000e+00	0.000000e+00
0.000000e+00	0.000000e+00	0.000000e+00
0.000000e+00	0.000000e+00	0.000000e+00
0.000000e+00	0.000000e+00	0.000000e+00
0.000000e+00	0.000000e+00	0.000000e+00
0.000000e+00	0.000000e+00	0.000000e+00
0.000000e+00	0.000000e+00	0.000000e+00
0.000000e+00	0.000000e+00	0.000000e+00
0.000000e+00	0.000000e+00	0.000000e+00
0.000000e+00	0.000000e+00	0.000000e+00
0.000000e+00	0.000000e+00	0.000000e+00
0.000000e+00	0.000000e+00	0.000000e+00
0.000000e+00	0.000000e+00	0.000000e+00
0.000000e+00	0.000000e+00	0.000000e+00
0.000000e+00	0.000000e+00	0.000000e+00
0.000000e+00	0.000000e+00	0.000000e+00
0.000000e+00	0.000000e+00	0.000000e+00
0.000000e+00	0.000000e+00	0.000000e+00
0.000000e+00	0.000000e+00	0.000000e+00
0.000000e+00	0.000000e+00	0.000000e+00
0.000000e+00	0.000000e+00	0.000000e+00
0.000000e+00	0.000000e+00	0.000000e+00
0.000000e+00	0.000000e+00	0.000000e+00
0.000000e+00	0.000000e+00	0.000000e+00
0.000000e+00	0.000000e+00	0.000000e+00
0.000000e+00	0.000000e+00	0.000000e+00
0.000000e+00	0.000000e+00	0.000000e+00
0.000000e+00	0.000000e+00	0.000000e+00
0.000000e+00	0.000000e+00	0.000000e+00
0.000000e+00	0.000000e+00	0.000000e+00
0.000000e+00	0.000000e+00	0.000000e+00
0.000000e+00	0.000000e+00	0.000000e+00
0.000000e+00	0.000000e+00	0.000000e+00
0.000000e+00	0.000000e+00	0.000000e+00
0.000000e+00	0.000000e+00	0.000000e+00
0.000000e+00	0.000000e+00	0.000000e+00
0.000000e+00	0.000000e+00	0.000000e+00
0.000000e+00	0.000000e+00	0.000000e+00
0.000000e+00	0.000000e+00	0.000000e+00
0.000000e+00	0.000000e+00	0.000000e+00
0.000000e+00	0.000000e+00	0.000000e+00
0.000000e+00	0.000000e+00	0.000000e+00
0.000000e+00	0.000000e+00	0.000000e+00
0.000000e+00	0.000000e+00	0.000000e+00
0.000000e+00	0.000000e+00	0.000000e+00
0.000000e+00	0.000000e+00	0.000000e+00
0.000000e+00	0.000000e+00	0.000000e+00
0.000000e+00	0.000000e+00	0.000000e+00
0.000000e+00	0.000000e+00	0.000000e+00
0.000000e+00	0.000000e+00	0.000000e+00
0.000000e+00	0.000000e+00	0.000000e+00
0.000000e+00	0.000000e+00	0.000000e+00
0.000000e+00	0.000000e+00	0.000000e+00
0.000000e+00	0.000000e+00	0.000000e+00
0.000000e+00	0.000000e+00	0.000000e+00
0.000000e+00	0.000000e+00	0.000000e+00
0.000000e+00	0.000000e+00	0.000000e+00
0.000000e+00	0.000000e+00	0.000000e+00
0.000000e+00	0.000000e+00	0.000000e+00
0.000000e+00	0.000000e+00	0.000000e+00
0.000000e+00	0.000000e+00	0.000000e+00
0.000000e+00	0.000000e+00	0.000000e+00
0.000000e+00	0.000000e+00	0.000000e+00
0.000000e+00	0.000000e+00	0.000000e+00
0.000000e+00	0.000000e+00	0.000000e+00
0.000000e+00	0.000000e+00	0.000000e+00
0.000000e+00	0.000000e+00	0.000000e+00
0.000000e+00	0.000000e+00	0.000000e+00
0.000000e+00	0.000000e+00	0.000000e+00
0.000000e+00	0.000000e+00	0.000000e+00
0.000000e+00	0.000000e+00	0.000000e+00
0.000000e+00	0.000000e+00	0.000000e+00
0.000000e+00	0.000000e+00	0.000000e+00
0.000000e+00	0.000000e+00	0.000000e+00
0.000000e+00	0.000000e+00	0.000000e+00
0.000000e+00	0.000000e+00	0.000000e+00
0.000000e+00	0.000000e+00	0.000000e+00
0.000000e+00	0.000000e+00	0.000000e+00
0.000000e+00	0.000000e+00	0.000000e+00
0.000000e+00	0.000000e+00	0.000000e+00
0.000000e+00	0.000000e+00	0.000000e+00
0.000000e+00	0.000000e+00	0.000000e+00
0.000000e+00	0.000000e+00	0.000000e+00
0.000000e+00	0.000000e+00	0.000000e+00
0.000000e+00	0.000000e+00	0.000000e+00
0.000000e+00	0.000000e+00	0.000000e+00
0.000000e+00	0.000000e+00	0.000000e+00
0.000000e+00	0.000000e+00	0.000000e+00
0.000000e+00	0.000000e+00	0.000000e+00
0.000000e+00	0.000000e+00	0.000000e+00
0.000000e+00	0.000000e+00	0.000000e+00
0.000000e+00	0.000000e+00	0.000000e+00
0.000000e+00	0.000000e+00	0.000000e+00
0.000000e+00	0.000000e+00	0.000000e+00
0.000000e+00	0.000000e+00	0.000000e+00
0.000000e+00	0.000000e+00	0.000000e+00
0.000000e+00	0.000000e+00	0.000000e+00
0.000000e+00	0.000000e+00	0.000000e+00
0.000000e+00	0.000000e+00	0.000000e+00
0.000000e+00	0.000000e+00	0.000000e+00
0.000000e+00	0.000000e+00	0.000000e+00
0.000000e+00	0.000000e+00	0.000000e+00
0.000000e+00	0.000000e+00	0.000000e+00
0.000000e+00	0.000000e+00	0.000000e+00
0.000000e+00	0.000000e+00	0.000000e+00
0.000000e+00	0.000000e+00	0.000000e+00
0.000000e+00	0.000000e+00	0.000000e+00
0.000000e+00	0.000000e+00	0.000000e+00
0.000000e+00	0.000000e+00	0.000000e+00
0.000000e+00	0.000000e+00	0.000000e+00
0.000000e+00	0.000000e+00	0.000000e+00
0.000000e+00	0.000000e+00	0.000000e+00
0.000000e+00	0.000000e+00	0.000000e+00
0.000000e+00	0.000000e+00	0.000000e+00
0.000000e+00	0.000000e+00	0.000000e+00
0.000000e+00	0.000000e+00	0.000000e+00
0.000000e+00	0.000000e+00	0.000000e+00
0.000000e+00	0.000000e+00	0.000000e+00
0.000000e+00	0.000000e+00	0.000000e+00
0.000000e+00	0.000000e+00	0.000000e+00
0.000000e+00	0.000000e+00	0.000000e+00
0.000000e+00	0.000000e+00	0.000000e+00
0.000000e+00	0.000000e+00	0.000000e+00
0.000000e+00	0.000000e+00	0.000000e+00
0.000000e+00	0.000000e+00	0.000000e+00
0.000000e+00	0.000000e+00	0.000000e+00
0.000000e+00	0.000000e+00	0.000000e+00
0.000000e+00	0.000000e+00	0.000000e+00
0.000000e+00	0.000000e+00	0.000000e+00
0.000000e+00	0.000000e+00	0.000000e+00
0.000000e+00	0.000000e+00	0.000000e+00
0.000000e+00	0.000000e+00	0.000000e+00
0.000000e+00	0.000000e+00	0.000000e+00
0.000000e+00	0.000000e+00	0.000000e+00
0.000000e+00	0.000000e+00	0.000000e+00
0.000000e+00	0.000000e+00	0.000000e+00
0.000000e+00	0.000000e+00	0.000000e+00
0.000000e+00	0.000000e+00	0.000000e+00
0.000000e+00	0.000000e+00	0.000000e+00
0.000000e+00	0.000000e+00	0.000000e+00
0.000000e+00	0.000000e+00	0.000000e+00
0.000000e+00	0.000000e+00	0.000000e+00
0.000000e+00	0.000000e+00	0.000000e+00
0.000000e+00	0.000000e+00	0.000000e+00
0.000000e+00	0.000000e+00	0.000000e+00
0.000000e+00	0.000000e+00	0.000000e+00
0.000000e+00	0.000000e+00	0.000000e+00
0.000000e+00	0.000000e+00	0.000000e+00
0.000000e+00	0.000000e+00	0.000000e+00
0.000000e+00	0.000000e+00	0.000000e+00
0.000000e+00	0.000000e+00	0.000000e+00
0.000000e+00	0.000000e+00	0.000000e+00
0.000000e+00	0.000000e+00	0.000000e+00
0.000000e+00	0.000000e+00	0.000000e+00
0.000000e+00	0.000000e+00	0.000000e+00
0.000000e+00	0.000000e+00	0.000000e+00
0.000000e+00	0.000000e+00	0.000000e+00
0.000000e+00	0.000000e+00	0.000000e+00
0.000000e+00	0.000000e+00	0.000000e+00
0.000000e+00	0.000000e+00	0.000000e+00
0.000000e+00	0.000000e+00	0.000000e+00
0.000000e+00	0.000000e+00	0.000000e+00
0.000000e+00	0.000000e+00	0.000000e+00
0.000000e+00	0.000000e+00	0.000000e+00
0.000000e+00	0.000000e+00	0.000000e+00
0.000000e+00	0.000000e+00	0.000000e+00
0.000000e+00	0.000000e+00	0.000000e+00
0.000000e+00	0.000000e+00	0.000000e+00
0.000000e+00	0.000000e+00	0.000000e+00
0.000000e+00	0.000000e+00	0.000000e+00
0.000000e+00	0.000000e+00	0.000000e+00
0.000000e+00	0.000000e+00	0.000000e+00
0.000000e+00	0.000000e+00	0.000000e+00
0.000000e+00	0.000000e+00	0.000000e+00
0.000000e+00	0.000000e+00	0.000000e+00
0.000000e+00	0.000000e+00	0.000000e+00
0.000000e+00	0.000000e+00	0.000000e+00
0.000000e+00	0.000000e+00	0.000000e+00
0.000000e+00	0.000000e+00	0.000000e+00
0.000000e+00	0.000000e+00	0.000000e+00
0.000000e+00	0.000000e+00	0.000000e+00
0.000000e+00	0.000000e+00	0.000000e+00
0.000000e+00	0.000000e+00	0.000000e+00
0.000000e+00	0.000000e+00	0.000000e+00
0.000000e+00	0.000000e+00	0.000000e+00
0.000000e+00	0.000000e+00	0.000000e+00
0.000000e+00	0.000000e+00	0.000000e+00
0.000000e+00	0.000000e+00	0.000000e+00
0.000000e+00	0.000000e+00	0.000000e+00
0.000000e+00	0.000000e+00	0.000000e+00
0.000000e+00	0.000000e+00	0.000000e+00
0.000000e+00	0.000000e+00	0.000000e+00
0.000000e+00	0.000000e+00	0.000000e+00
0.000000e+00	0.000000e+00	0.000000e+00
0.000000e+00	0.000000e+00	0.000000e+00
0.000000e+00	0.000000e+00	0.000000e+00
0.000000e+00	0.000000e+00	0.000000e+00
0.000000e+00	0.000000e+00	0.000000e+00
0.000000e+00	0.000000e+00	0.000000e+00
0.000000e+00	0.000000e+00	0.000000e+00
0.000000e+00	0.000000e+00	0.000000e+00
0.000000e+00	0.000000e+00	0.000000e+00
0.000000e+00	0.000000e+00	0.000000e+00
0.000000e+00	0.000000e+00	0.000000e+00
0.000000e+00	0.000000e+00	0.000000e+00
0.000000e+00	0.000000e+00	0.000000e+00
0.000000e+00	0.000000e+00	0.000000e+00
0.000000e+00	0.000000e+00	0.000000e+00
0.000000e+00	0.000000e+00	0.000000e+00
0.000000e+00	0.000000e+00	0.000000e+00
0.000000e+00	0.000000e+00	0.000000e+00
0.000000e+00	0.000000e+00	0.000000e+00
0.000000e+00	0.000000e+00	0.000000e+00
0.000000e+00	0.000000e+00	0.000000e+00
0.000000e+00	0.000000e+00	0.000000e+00
0.000000e+00	0.000000e+00	0.000000e+00
0.000000e+00	0.000000e+00	0.000000e+00
0.000000e+00	0.000000e+00	0.000000e+00
0.000000e+00	0.000000e+00	0.000000e+00
0.000000e+00	0.000000e+00	0.000000e+00
0.000000e+00	0.000000e+00	0.000000e+00
0.000000e+00	0.000000e+00	0.000000e+00
0.000000e+00	0.000000e+00	0.000000e+00
0.000000e+00	0.000000e+00	0.000000e+00
0.000000e+00	0.000000e+00	0.000000e+00
0.000000e+00	0.000000e+00	0.000000e+00
0.000000e+00	0.000000e+00	0.000000e+00
0.000000e+00	0.000000e+00	0.000000e+00
0.000000e+00	0.000000e+00	0.000000e+00
0.000000e+00	0.000000e+00	0.000000e+00
0.000000e+00	0.000000e+00	0.000000e+00
0.000000e+00	0.000000e+00	0.000000e+00
0.000000e+00	0.000000e+00	0.000000e+00
0.000000e+00	0.000000e+00	0.000000e+00
0.000000e+00	0.000000e+00	0.000000e+00
0.000000e+00	0.000000e+00	0.000000e+00
0.000000e+00	0.000000e+00	0.000000e+00
0.000000e+00	0.000000e+00	0.000000e+00
0.000000e+00	0.000000e+00	0.000000e+00
0.000000e+00	0.000000e+00	0.000000e+00
0.000000e+00	0.000000e+00	0.000000e+00
0.000000e+00	0.000000e+00	0.000000e+00
0.000000e+00	0.000000e+00	0.000000e+00
0.000000e+00	0.000000e+00	0.000000e+00
0.000000e+00	0.000000e+00	0.000000e+00
0.000000e+00	0.000000e+00	0.000000e+00
0.000000e+00	0.000000e+00	0.000000e+00
0.000000e+00	0.000000e+00	0.000000e+00
SCALARS	MembraneStatus	float	1
LOOKUP_TABLE	default
1.000000
1.000000
1.000000
1.000000
1.000000
1.000000
1.000000
1.000000
1.000000
1.000000
1.000000
1.000000
1.000000
1.000000
1.000000
1.000000
1.000000
1.000000
1.000000
1.000000
1.000000
1.000000
1.000000
1.000000
1.000000
1.000000
1.000000
1.000000
1.000000
1.000000
1.000000
1.000000
1.000000
1.000000
1.000000
1.000000
1.000000
1.000000
1.000000
1.000000
1.000000
1.000000
1.000000
1.000000
1.000000
1.000000
1.000000
1.000000
1.000000
1.000000
1.000000
1.000000
1.000000
1.000000
1.000000
1.000000
1.000000
1.000000
1.000000
1.000000
1.000000
1.000000
1.000000
1.000000
1.000000
1.000000
1.000000
1.000000
1.000000
1.000000
1.000000
1.000000
1.000000
1.000000
1.000000
1.000000
1.000000
1.000000
1.000000
1.000000
1.000000
1.000000
1.000000
1.000000
1.000000
1.000000
1.000000
1.000000
1.000000
1.000000
1.000000
1.000000
1.000000
1.000000
1.000000
1.000000
1.000000
1.000000
1.000000
1.000000
1.000000
1.000000
1.000000
1.000000
1.000000
1.000000
1.000000
1.000000
1.000000
1.000000
1.000000
1.000000
1.000000
1.000000
1.000000
1.000000
1.000000
1.000000
1.000000
1.000000
1.000000
1.000000
1.000000
1.000000
1.000000
1.000000
1.000000
1.000000
1.000000
1.000000
1.000000
1.000000
1.000000
1.000000
1.000000
1.000000
1.000000
1.000000
1.000000
1.000000
1.000000
1.000000
1.000000
1.000000
1.000000
1.000000
1.000000
1.000000
1.000000
1.000000
1.000000
1.000000
1.000000
1.000000
1.000000
1.000000
1.000000
1.000000
1.000000
1.000000
1.000000
1.000000
1.000000
1.000000
1.000000
1.000000
1.000000
1.000000
1.000000
1.000000
1.000000
1.000000
1.000000
1.000000
1.000000
1.000000
1.000000
1.000000
1.000000
1.000000
1.000000
1.000000
1.000000
1.000000
1.000000
1.000000
1.000000
1.000000
1.000000
1.000000
1.000000
1.000000
1.000000
1.000000
1.000000
1.000000
1.000000
1.000000
1.000000
1.000000
1.000000
1.000000
1.000000
1.000000
1.000000
1.000000
1.000000
1.000000
1.000000
1.000000
1.000000
1.000000
1.000000
1.000000
1.000000
1.000000
1.000000
1.000000
1.000000
1.000000
1.000000
1.000000
1.000000
1.000000
1.000000
1.000000
1.000000
1.000000
1.000000
1.000000
1.000000
1.000000
1.000000
1.000000
1.000000
1.000000
1.000000
1.000000
1.000000
1.000000
1.000000
1.000000
1.000000
1.000000
1.000000
1.000000
1.000000
1.000000
1.000000
1.000000
1.000000
1.000000
1.000000
1.000000
1.000000
1.000000
1.000000
1.000000
1.000000
1.000000
1.000000
1.000000
1.000000
1.000000
1.000000
1.000000
1.000000
1.000000
1.000000
1.000000
1.000000
1.000000
1.000000
1.000000
1.000000
1.000000
1.000000
1.000000
1.000000
1.000000
1.000000
1.000000
1.000000
1.000000
1.000000
1.000000
1.000000
1.000000
1.000000
1.000000
1.000000
1.000000
1.000000
1.000000
1.000000
1.000000
1.000000
1.000000
1.000000
1.000000
1.000000
1.000000
1.000000
1.000000
1.000000
1.000000
1.000000
1.000000
1.000000
1.000000
1.000000
1.000000
1.000000
1.000000
1.000000
1.000000
1.000000
1.000000
1.000000
1.000000
1.000000
1.000000
1.000000
1.000000
1.000000
1.000000
1.000000
1.000000
1.000000
1.000000
1.000000
1.000000
1.000000
1.000000
1.000000
1.000000
1.000000
1.000000
1.000000
1.000000
1.000000
1.000000
1.000000
1.000000
1.000000
1.000000
1.000000
1.000000
1.000000
1.000000
1.000000
1.000000
1.000000
1.000000
1.000000
1.000000
1.000000
1.000000
1.000000
1.000000
1.000000
1.000000
1.000000
1.000000
1.000000
1.000000
1.000000
1.000000
1.000000
1.000000
1.000000
1.000000
1.000000
1.000000
1.000000
1.000000
1.000000
1.000000
1.000000
1.000000
1.000000
1.000000
1.000000
1.000000
1.000000
1.000000
1.000000
1.000000
1.000000
1.000000
1.000000
1.000000
1.000000
1.000000
1.000000
1.000000
1.000000
1.000000
1.000000
1.000000
1.000000
1.000000
1.000000
1.000000
1.000000
1.000000
1.000000
1.000000
1.000000
1.000000
1.000000
1.000000
1.000000
1.000000
1.000000
1.000000
1.000000
1.000000
1.000000
1.000000
1.000000
1.000000
1.000000
1.000000
1.000000
1.000000
1.000000
1.000000
1.000000
1.000000
1.000000
1.000000
1.000000
1.000000
1.000000
1.000000
1.000000
1.000000
1.000000
1.000000
1.000000
1.000000
1.000000
1.000000
1.000000
1.000000
1.000000
1.000000
1.000000
1.000000
1.000000
1.000000
1.000000
1.000000
1.000000
1.000000
1.000000
1.000000
1.000000
1.000000
1.000000
1.000000
1.000000
1.000000
1.000000
1.000000
1.000000
1.000000
1.000000
1.000000
1.000000
1.000000
1.000000
1.000000
1.000000
1.000000
1.000000
1.000000
1.000000
1.000000
1.000000
1.000000
1.000000
1.000000
1.000000
1.000000
1.000000
1.000000
1.000000
1.000000
1.000000
1.000000
1.000000
1.000000
1.000000
1.000000
1.000000
1.000000
1.000000
1.000000
1.000000
1.000000
1.000000
1.000000
1.000000
1.000000
1.000000
1.000000
1.000000
1.000000
1.000000
1.000000
1.000000
1.000000
1.000000
1.000000
1.000000
1.000000
1.000000
1.000000
1.000000
1.000000
1.000000
1.000000
1.000000
1.000000
1.000000
1.000000
1.000000
1.000000
1.000000
1.000000
1.000000
1.000000
1.000000
1.000000
1.000000
1.000000
1.000000
1.000000
1.000000
1.000000
1.000000
1.000000
1.000000
1.000000
1.000000
1.000000
1.000000
1.000000
1.000000
1.000000
1.000000
1.000000
1.000000
1.000000
1.000000
1.000000
1.000000
1.000000
1.000000
1.000000
1.000000
1.000000
1.000000
1.000000
1.000000
1.000000
1.000000
1.000000
1.000000
1.000000
1.000000
1.000000
1.000000
1.000000
1.000000
1.000000
1.000000
1.000000
1.000000
1.000000
1.000000
1.000000
1.000000
1.000000
1.000000
1.000000
1.000000
1.000000
1.000000
1.000000
1.000000
1.000000
1.000000
1.000000
1.000000
1.000000
1.000000
1.000000
1.000000
1.000000
1.000000
1.000000
1.000000
1.000000
1.000000
1.000000
1.000000
1.000000
1.000000
1.000000
1.000000
1.000000
1.000000
1.000000
1.000000
1.000000
1.000000
1.000000
1.000000
1.000000
1.000000
1.000000
1.000000
1.000000
1.000000
1.000000
1.000000
1.000000
1.000000
1.000000
1.000000
1.000000
1.000000
1.000000
1.000000
1.000000
1.000000
1.000000
1.000000
1.000000
1.000000
1.000000
1.000000
1.000000
1.000000
1.000000
1.000000
1.000000
1.000000
1.000000
1.000000
1.000000
1.000000
1.000000
1.000000
1.000000
1.000000
1.000000
1.000000
1.000000
1.000000
1.000000
1.000000
1.000000
1.000000
1.000000
1.000000
1.000000
1.000000
1.000000
1.000000
1.000000
1.000000
1.000000
1.000000
1.000000
1.000000
1.000000
1.000000
1.000000
1.000000
1.000000
1.000000
1.000000
1.000000
1.000000
1.000000
1.000000
1.000000
1.000000
1.000000
1.000000
1.000000
1.000000
1.000000
1.000000
1.000000
1.000000
1.000000
1.000000
1.000000
1.000000
1.000000
1.000000
1.000000
1.000000
1.000000
1.000000
1.000000
1.000000
1.000000
1.000000
1.000000
1.000000
1.000000
1.000000
1.000000
1.000000
1.000000
1.000000
1.000000
1.000000
1.000000
1.000000
1.000000
1.000000
1.000000
1.000000
1.000000
1.000000
1.000000
1.000000
1.000000
1.000000
1.000000
1.000000
1.000000
1.000000
1.000000
1.000000
1.000000
1.000000
1.000000
1.000000
1.000000
1.000000
1.000000
1.000000
1.000000
1.000000
1.000000
1.000000
1.000000
1.000000
1.000000
1.000000
1.000000
1.000000
1.000000
1.000000
1.000000
1.000000
1.000000
1.000000
1.000000
1.000000
1.000000
1.000000
1.000000
1.000000
1.000000
1.000000
1.000000
1.000000
1.000000
1.000000
1.000000
1.000000
1.000000
1.000000
1.000000
1.000000
1.000000
1.000000
1.000000
1.000000
1.000000
1.000000
1.000000
1.000000
1.000000
1.000000
1.000000
1.000000
1.000000
1.000000
1.000000
1.000000
1.000000
1.000000
1.000000
1.000000
1.000000
1.000000
1.000000
1.000000
1.000000
1.000000
1.000000
1.000000
1.000000
1.000000
1.000000
1.000000
1.000000
1.000000
1.000000
1.000000
1.000000
1.000000
1.000000
1.000000
1.000000
1.000000
1.000000
1.000000
1.000000
1.000000
1.000000
1.000000
1.000000
1.000000
1.000000
1.000000
1.000000
1.000000
1.000000
1.000000
1.000000
1.000000
1.000000
1.000000
1.000000
1.000000
1.000000
1.000000
1.000000
1.000000
1.000000
1.000000
1.000000
1.000000
1.000000
1.000000
1.000000
1.000000
1.000000
1.000000
1.000000
1.000000
1.000000
1.000000
1.000000
1.000000
1.000000
1.000000
1.000000
1.000000
1.000000
1.000000
1.000000
1.000000
1.000000
1.000000
1.000000
1.000000
1.000000
1.000000
1.000000
1.000000
1.000000
1.000000
1.000000
1.000000
1.000000
1.000000
1.000000
1.000000
1.000000
1.000000
1.000000
1.000000
1.000000
1.000000
1.000000
1.000000
1.000000
1.000000
1.000000
1.000000
1.000000
1.000000
1.000000
1.000000
1.000000
1.000000
1.000000
1.000000
1.000000
1.000000
1.000000
1.000000
1.000000
1.000000
1.000000
1.000000
1.000000
1.000000
1.000000
1.000000
1.000000
1.000000
1.000000
1.000000
1.000000
1.000000
1.000000
1.000000
1.000000
1.000000
1.000000
1.000000
1.000000
1.000000
1.000000
1.000000
1.000000
1.000000
1.000000
1.000000
1.000000
1.000000
1.000000
1.000000
1.000000
1.000000
1.000000
1.000000
1.000000
1.000000
1.000000
1.000000
1.000000
1.000000
1.000000
1.000000
1.000000
1.000000
1.000000
1.000000
1.000000
1.000000
1.000000
1.000000
1.000000
1.000000
1.000000
1.000000
1.000000
1.000000
1.000000
1.000000
1.000000
1.000000
1.000000
1.000000
1.000000
1.000000
1.000000
1.000000
1.000000
1.000000
1.000000
1.000000
1.000000
1.000000
1.000000
1.000000
1.000000
1.000000
1.000000
1.000000
1.000000
1.000000
1.000000
1.000000
1.000000
1.000000
1.000000
1.000000
1.000000
1.000000
1.000000
1.000000
1.000000
1.000000
1.000000
1.000000
1.000000
1.000000
1.000000
1.000000
1.000000
1.000000
1.000000
1.000000
1.000000
1.000000
1.000000
1.000000
1.000000
1.000000
1.000000
1.000000
1.000000
1.000000
1.000000
1.000000
1.000000
1.000000
1.000000
1.000000
1.000000
1.000000
1.000000
1.000000
1.000000
1.000000
1.000000
1.000000
1.000000
1.000000
1.000000
1.000000
1.000000
1.000000
1.000000
1.000000
1.000000
1.000000
1.000000
1.000000
1.000000
1.000000
1.000000
1.000000
1.000000
1.000000
1.000000
1.000000
1.000000
1.000000
1.000000
1.000000
1.000000
1.000000
1.000000
1.000000
1.000000
1.000000
1.000000
1.000000
1.000000
1.000000
1.000000
1.000000
1.000000
1.000000
1.000000
1.000000
1.000000
1.000000
1.000000
1.000000
1.000000
1.000000
1.000000
1.000000
1.000000
1.000000
1.000000
1.000000
1.000000
1.000000
1.000000
1.000000
1.000000
1.000000
1.000000
1.000000
1.000000
1.000000
1.000000
1.000000
1.000000
1.000000
1.000000
1.000000
1.000000
1.000000
1.000000
1.000000
1.000000
1.000000
1.000000
1.000000
1.000000
1.000000
1.000000
1.000000
1.000000
1.000000
1.000000
1.000000
1.000000
1.000000
1.000000
1.000000
1.000000
1.000000
1.000000
1.000000
1.000000
1.000000
1.000000
1.000000
1.000000
1.000000
1.000000
1.000000
1.000000
1.000000
1.000000
1.000000
1.000000
1.000000
1.000000
1.000000
1.000000
1.000000
1.000000
1.000000
1.000000
1.000000
1.000000
1.000000
1.000000
1.000000
1.000000
1.000000
1.000000
1.000000
1.000000
1.000000
1.000000
1.000000
1.000000
1.000000
1.000000
1.000000
1.000000
1.000000
1.000000
1.000000
1.000000
1.000000
1.000000
1.000000
1.000000
1.000000
1.000000
1.000000
1.000000
1.000000
1.000000
1.000000
1.000000
1.000000
1.000000
1.000000
1.000000
1.000000
1.000000
1.000000
1.000000
1.000000
1.000000
1.000000
1.000000
1.000000
1.000000
1.000000
1.000000
1.000000
1.000000
1.000000
1.000000
1.000000
1.000000
1.000000
1.000000
1.000000
1.000000
1.000000
1.000000
1.000000
1.000000
1.000000
1.000000
1.000000
1.000000
1.000000
1.000000
1.000000
1.000000
1.000000
1.000000
1.000000
1.000000
1.000000
1.000000
1.000000
1.000000
1.000000
1.000000
1.000000
1.000000
1.000000
1.000000
1.000000
1.000000
1.000000
1.000000
1.000000
1.000000
1.000000
1.000000
1.000000
1.000000
1.000000
1.000000
1.000000
1.000000
1.000000
1.000000
1.000000
1.000000
1.000000
1.000000
1.000000
1.000000
1.000000
1.000000
1.000000
1.000000
1.000000
1.000000
1.000000
1.000000
1.000000
1.000000
1.000000
1.000000
1.000000
1.000000
1.000000
1.000000
1.000000
1.000000
1.000000
1.000000
1.000000
1.000000
1.000000
1.000000
1.000000
1.000000
1.000000
1.000000
1.000000
1.000000
1.000000
1.000000
1.000000
1.000000
1.000000
1.000000
1.000000
1.000000
1.000000
1.000000
1.000000
1.000000
1.000000
1.000000
1.000000
1.000000
1.000000
1.000000
1.000000
1.000000
1.000000
1.000000
1.000000
1.000000
1.000000
1.000000
1.000000
1.000000
1.000000
1.000000
1.000000
1.000000
1.000000
1.000000
1.000000
1.000000
1.000000
1.000000
1.000000
1.000000
1.000000
1.000000
1.000000
1.000000
1.000000
1.000000
1.000000
1.000000
1.000000
1.000000
1.000000
1.000000
1.000000
1.000000
1.000000
1.000000
1.000000
1.000000
1.000000
1.000000
1.000000
1.000000
1.000000
1.000000
1.000000
1.000000
1.000000
1.000000
1.000000
1.000000
1.000000
1.000000
1.000000
1.000000
1.000000
1.000000
1.000000
1.000000
1.000000
1.000000
1.000000
1.000000
1.000000
1.000000
1.000000
1.000000
1.000000
1.000000
1.000000
1.000000
1.000000
1.000000
1.000000
1.000000
1.000000
1.000000
1.000000
1.000000
1.000000
1.000000
1.000000
1.000000
1.000000
1.000000
1.000000
1.000000
1.000000
1.000000
1.000000
1.000000
1.000000
1.000000
1.000000
1.000000
1.000000
1.000000
1.000000
1.000000
1.000000
1.000000
1.000000
1.000000
1.000000
1.000000
1.000000
1.000000
1.000000
1.000000
1.000000
1.000000
1.000000
1.000000
1.000000
1.000000
1.000000
1.000000
1.000000
1.000000
1.000000
1.000000
1.000000
1.000000
1.000000
1.000000
1.000000
1.000000
1.000000
1.000000
1.000000
1.000000
1.000000
1.000000
1.000000
1.000000
1.000000
1.000000
1.000000
1.000000
1.000000
1.000000
1.000000
1.000000
1.000000
1.000000
1.000000
1.000000
1.000000
1.000000
1.000000
1.000000
1.000000
1.000000
1.000000
1.000000
1.000000
1.000000
1.000000
1.000000
1.000000
1.000000
1.000000
1.000000
1.000000
1.000000
1.000000
1.000000
1.000000
1.000000
1.000000
1.000000
1.000000
1.000000
1.000000
1.000000
1.000000
1.000000
1.000000
1.000000
1.000000
1.000000
1.000000
1.000000
1.000000
1.000000
1.000000
1.000000
1.000000
1.000000
1.000000
1.000000
1.000000
1.000000
1.000000
1.000000
1.000000
1.000000
1.000000
1.000000
1.000000
1.000000
1.000000
1.000000
1.000000
1.000000
1.000000
1.000000
1.000000
1.000000
1.000000
1.000000
1.000000
1.000000
1.000000
1.000000
1.000000
1.000000
1.000000
1.000000
1.000000
1.000000
1.000000
1.000000
1.000000
1.000000
1.000000
1.000000
1.000000
1.000000
1.000000
1.000000
1.000000
1.000000
1.000000
1.000000
1.000000
1.000000
1.000000
1.000000
1.000000
1.000000
1.000000
1.000000
1.000000
1.000000
1.000000
1.000000
1.000000
1.000000
1.000000
1.000000
1.000000
1.000000
1.000000
1.000000
1.000000
1.000000
1.000000
1.000000
1.000000
1.000000
1.000000
1.000000
1.000000
1.000000
1.000000
1.000000
1.000000
1.000000
1.000000
1.000000
1.000000
1.000000
1.000000
1.000000
1.000000
1.000000
1.000000
1.000000
1.000000
1.000000
1.000000
1.000000
1.000000
1.000000
1.000000
1.000000
1.000000
1.000000
1.000000
1.000000
1.000000
1.000000
1.000000
1.000000
1.000000
1.000000
1.000000
1.000000
1.000000
1.000000
1.000000
1.000000
1.000000
1.000000
1.000000
1.000000
1.000000
1.000000
1.000000
1.000000
1.000000
1.000000
1.000000
1.000000
1.000000
1.000000
1.000000
1.000000
1.000000
1.000000
1.000000
1.000000
1.000000
1.000000
1.000000
1.000000
1.000000
1.000000
1.000000
1.000000
1.000000
1.000000
1.000000
1.000000
1.000000
1.000000
1.000000
1.000000
1.000000
1.000000
1.000000
1.000000
1.000000
1.000000
1.000000
1.000000
1.000000
1.000000
1.000000
1.000000
1.000000
1.000000
1.000000
1.000000
1.000000
1.000000
1.000000
1.000000
1.000000
1.000000
1.000000
1.000000
1.000000
1.000000
1.000000
1.000000
1.000000
1.000000
1.000000
1.000000
1.000000
1.000000
1.000000
1.000000
1.000000
1.000000
1.000000
1.000000
1.000000
1.000000
1.000000
1.000000
1.000000
1.000000
1.000000
1.000000
1.000000
1.000000
1.000000
1.000000
1.000000
1.000000
1.000000
1.000000
1.000000
1.000000
1.000000
1.000000
1.000000
1.000000
1.000000
1.000000
1.000000
1.000000
1.000000
1.000000
1.000000
1.000000
1.000000
1.000000
1.000000
1.000000
1.000000
1.000000
1.000000
1.000000
1.000000
1.000000
1.000000
1.000000
1.000000
1.000000
1.000000
1.000000
1.000000
1.000000
1.000000
1.000000
1.000000
1.000000
1.000000
1.000000
1.000000
1.000000
1.000000
1.000000
1.000000
1.000000
1.000000
1.000000
1.000000
1.000000
1.000000
1.000000
1.000000
1.000000
1.000000
1.000000
1.000000
1.000000
1.000000
1.000000
1.000000
1.000000
1.000000
1.000000
1.000000
1.000000
1.000000
1.000000
1.000000
1.000000
1.000000
1.000000
1.000000
1.000000
1.000000
1.000000
1.000000
1.000000
1.000000
1.000000
1.000000
1.000000
1.000000
1.000000
1.000000
1.000000
1.000000
1.000000
1.000000
1.000000
1.000000
1.000000
1.000000
1.000000
1.000000
1.000000
1.000000
1.000000
1.000000
1.000000
1.000000
1.000000
1.000000
1.000000
1.000000
1.000000
1.000000
1.000000
1.000000
1.000000
1.000000
1.000000
1.000000
1.000000
1.000000
1.000000
1.000000
1.000000
1.000000
1.000000
1.000000
1.000000
1.000000
1.000000
1.000000
1.000000
1.000000
1.000000
1.000000
1.000000
1.000000
1.000000
1.000000
1.000000
1.000000
1.000000
1.000000
1.000000
1.000000
1.000000
1.000000
1.000000
1.000000
1.000000
1.000000
1.000000
1.000000
1.000000
1.000000
1.000000
1.000000
1.000000
1.000000
1.000000
1.000000
1.000000
1.000000
1.000000
1.000000
1.000000
1.000000
1.000000
1.000000
1.000000
1.000000
1.000000
1.000000
1.000000
1.000000
1.000000
1.000000
1.000000
1.000000
1.000000
1.000000
1.000000
1.000000
1.000000
1.000000
1.000000
1.000000
1.000000
1.000000
1.000000
1.000000
1.000000
1.000000
1.000000
1.000000
1.000000
1.000000
1.000000
1.000000
1.000000
1.000000
1.000000
1.000000
1.000000
1.000000
1.000000
1.000000
1.000000
1.000000
1.000000
1.000000
1.000000
1.000000
1.000000
1.000000
1.000000
1.000000
1.000000
1.000000
1.000000
1.000000
1.000000
1.000000
1.000000
1.000000
1.000000
1.000000
1.000000
1.000000
1.000000
1.000000
1.000000
1.000000
1.000000
1.000000
1.000000
1.000000
1.000000
1.000000
1.000000
1.000000
1.000000
1.000000
1.000000
1.000000
1.000000
1.000000
1.000000
1.000000
1.000000
1.000000
1.000000
1.000000
1.000000
1.000000
1.000000
1.000000
1.000000
1.000000
1.000000
1.000000
1.000000
1.000000
1.000000
1.000000
1.000000
1.000000
1.000000
1.000000
1.000000
1.000000
1.000000
1.000000
1.000000
1.000000
1.000000
1.000000
1.000000
1.000000
1.000000
1.000000
1.000000
1.000000
1.000000
1.000000
1.000000
1.000000
1.000000
1.000000
1.000000
1.000000
1.000000
1.000000
1.000000
1.000000
1.000000
1.000000
1.000000
1.000000
1.000000
1.000000
1.000000
1.000000
1.000000
1.000000
1.000000
1.000000
1.000000
1.000000
1.000000
1.000000
1.000000
1.000000
1.000000
1.000000
1.000000
1.000000
1.000000
1.000000
1.000000
1.000000
1.000000
1.000000
1.000000
1.000000
1.000000
1.000000
1.000000
1.000000
1.000000
1.000000
1.000000
1.000000
1.000000
1.000000
1.000000
1.000000
1.000000
1.000000
1.000000
1.000000
1.000000
1.000000
1.000000
1.000000
1.000000
1.000000
1.000000
1.000000
1.000000
1.000000
1.000000
1.000000
1.000000
1.000000
1.000000
1.000000
1.000000
1.000000
1.000000
1.000000
1.000000
1.000000
1.000000
1.000000
1.000000
1.000000
1.000000
1.000000
1.000000
1.000000
1.000000
1.000000
1.000000
1.000000
1.000000
1.000000
1.000000
1.000000
1.000000
1.000000
1.000000
1.000000
1.000000
1.000000
1.000000
1.000000
1.000000
1.000000
1.000000
1.000000
1.000000
1.000000
1.000000
1.000000
1.000000
1.000000
1.000000
1.000000
1.000000
1.000000
1.000000
1.000000
1.000000
1.000000
1.000000
1.000000
1.000000
1.000000
1.000000
1.000000
1.000000
1.000000
1.000000
1.000000
1.000000
1.000000
1.000000
1.000000
1.000000
1.000000
1.000000
1.000000
1.000000
1.000000
1.000000
1.000000
1.000000
1.000000
1.000000
1.000000
1.000000
1.000000
1.000000
1.000000
1.000000
1.000000
1.000000
1.000000
1.000000
1.000000
1.000000
1.000000
1.000000
1.000000
1.000000
1.000000
1.000000
1.000000
1.000000
1.000000
1.000000
1.000000
1.000000
1.000000
1.000000
1.000000
1.000000
1.000000
1.000000
1.000000
1.000000
1.000000
1.000000
1.000000
1.000000
1.000000
1.000000
1.000000
1.000000
1.000000
1.000000
1.000000
1.000000
1.000000
1.000000
1.000000
1.000000
1.000000
1.000000
1.000000
1.000000
1.000000
1.000000
1.000000
1.000000
1.000000
1.000000
1.000000
1.000000
1.000000
1.000000
1.000000
1.000000
1.000000
1.000000
1.000000
1.000000
1.000000
1.000000
1.000000
1.000000
1.000000
1.000000
1.000000
1.000000
1.000000
1.000000
1.000000
1.000000
1.000000
1.000000
1.000000
1.000000
1.000000
1.000000
1.000000
1.000000
1.000000
1.000000
1.000000
1.000000
1.000000
1.000000
1.000000
1.000000
1.000000
1.000000
1.000000
1.000000
1.000000
1.000000
1.000000
1.000000
1.000000
1.000000
1.000000
1.000000
1.000000
1.000000
1.000000
1.000000
1.000000
1.000000
1.000000
1.000000
1.000000
1.000000
1.000000
1.000000
1.000000
1.000000
1.000000
1.000000
1.000000
1.000000
1.000000
1.000000
1.000000
1.000000
1.000000
1.000000
1.000000
1.000000
1.000000
1.000000
1.000000
1.000000
1.000000
1.000000
1.000000
1.000000
1.000000
1.000000
1.000000
1.000000
1.000000
1.000000
1.000000
1.000000
1.000000
1.000000
1.000000
1.000000
1.000000
1.000000
1.000000
1.000000
1.000000
1.000000
1.000000
1.000000
1.000000
1.000000
1.000000
1.000000
1.000000
1.000000
1.000000
1.000000
1.000000
1.000000
1.000000
1.000000
1.000000
1.000000
1.000000
1.000000
1.000000
1.000000
1.000000
1.000000
1.000000
1.000000
1.000000
1.000000
1.000000
1.000000
1.000000
1.000000
1.000000
1.000000
1.000000
1.000000
1.000000
1.000000
1.000000
1.000000
1.000000
1.000000
1.000000
1.000000
1.000000
1.000000
1.000000
1.000000
1.000000
1.000000
1.000000
1.000000
1.000000
1.000000
1.000000
1.000000
1.000000
1.000000
1.000000
1.000000
1.000000
1.000000
1.000000
1.000000
1.000000
1.000000
1.000000
1.000000
1.000000
1.000000
1.000000
1.000000
1.000000
1.000000
1.000000
1.000000
1.000000
1.000000
1.000000
1.000000
1.000000
1.000000
1.000000
1.000000
1.000000
1.000000
1.000000
1.000000
1.000000
1.000000
1.000000
1.000000
1.000000
1.000000
1.000000
1.000000
1.000000
1.000000
1.000000
1.000000
1.000000
1.000000
1.000000
1.000000
1.000000
1.000000
1.000000
1.000000
1.000000
1.000000
1.000000
1.000000
1.000000
1.000000
1.000000
1.000000
1.000000
1.000000
1.000000
1.000000
1.000000
1.000000
1.000000
1.000000
1.000000
1.000000
1.000000
1.000000
1.000000
1.000000
1.000000
1.000000
1.000000
1.000000
1.000000
1.000000
1.000000
1.000000
1.000000
1.000000
1.000000
1.000000
1.000000
1.000000
1.000000
1.000000
1.000000
1.000000
1.000000
1.000000
1.000000
1.000000
1.000000
1.000000
1.000000
1.000000
1.000000
1.000000
1.000000
1.000000
1.000000
1.000000
1.000000
1.000000
1.000000
1.000000
1.000000
1.000000
1.000000
1.000000
1.000000
1.000000
1.000000
1.000000
1.000000
1.000000
1.000000
1.000000
1.000000
1.000000
1.000000
1.000000
1.000000
1.000000
1.000000
1.000000
1.000000
1.000000
1.000000
1.000000
1.000000
1.000000
1.000000
1.000000
1.000000
1.000000
1.000000
1.000000
1.000000
1.000000
1.000000
1.000000
1.000000
1.000000
1.000000
1.000000
1.000000
1.000000
1.000000
1.000000
1.000000
1.000000
1.000000
1.000000
1.000000
1.000000
1.000000
1.000000
1.000000
1.000000
1.000000
1.000000
1.000000
1.000000
1.000000
1.000000
1.000000
1.000000
1.000000
1.000000
1.000000
1.000000
1.000000
1.000000
1.000000
1.000000
1.000000
1.000000
1.000000
1.000000
1.000000
1.000000
1.000000
1.000000
1.000000
1.000000
1.000000
1.000000
1.000000
1.000000
1.000000
1.000000
1.000000
1.000000
1.000000
1.000000
1.000000
1.000000
1.000000
1.000000
1.000000
1.000000
1.000000
1.000000
1.000000
1.000000
1.000000
1.000000
1.000000
1.000000
1.000000
1.000000
1.000000
1.000000
1.000000
1.000000
1.000000
1.000000
1.000000
1.000000
1.000000
1.000000
1.000000
1.000000
1.000000
1.000000
1.000000
1.000000
1.000000
1.000000
1.000000
1.000000
1.000000
1.000000
1.000000
1.000000
1.000000
1.000000
1.000000
1.000000
1.000000
1.000000
1.000000
1.000000
1.000000
1.000000
1.000000
1.000000
1.000000
1.000000
1.000000
1.000000
1.000000
1.000000
1.000000
1.000000
1.000000
1.000000
1.000000
1.000000
1.000000
1.000000
1.000000
1.000000
1.000000
1.000000
1.000000
1.000000
1.000000
1.000000
1.000000
1.000000
1.000000
1.000000
1.000000
1.000000
1.000000
1.000000
1.000000
1.000000
1.000000
1.000000
1.000000
1.000000
1.000000
1.000000
1.000000
1.000000
1.000000
1.000000
1.000000
1.000000
1.000000
1.000000
1.000000
1.000000
1.000000
1.000000
1.000000
1.000000
1.000000
1.000000
1.000000
1.000000
1.000000
1.000000
1.000000
1.000000
1.000000
1.000000
1.000000
1.000000
1.000000
1.000000
1.000000
1.000000
1.000000
1.000000
1.000000
1.000000
1.000000
1.000000
1.000000
1.000000
1.000000
1.000000
1.000000
1.000000
1.000000
1.000000
1.000000
1.000000
1.000000
1.000000
1.000000
1.000000
1.000000
1.000000
1.000000
1.000000
1.000000
1.000000
1.000000
1.000000
1.000000
1.000000
1.000000
1.000000
1.000000
1.000000
1.000000
1.000000
1.000000
1.000000
1.000000
1.000000
1.000000
1.000000
1.000000
1.000000
1.000000
1.000000
1.000000
1.000000
1.000000
1.000000
1.000000
1.000000
1.000000
1.000000
1.000000
1.000000
1.000000
1.000000
1.000000
1.000000
1.000000
1.000000
1.000000
1.000000
1.000000
1.000000
1.000000
1.000000
1.000000
1.000000
1.000000
1.000000
1.000000
1.000000
1.000000
1.000000
1.000000
1.000000
1.000000
1.000000
1.000000
1.000000
1.000000
1.000000
1.000000
1.000000
1.000000
1.000000
1.000000
1.000000
1.000000
1.000000
1.000000
1.000000
1.000000
1.000000
1.000000
1.000000
1.000000
1.000000
1.000000
1.000000
1.000000
1.000000
1.000000
1.000000
1.000000
1.000000
1.000000
1.000000
1.000000
1.000000
1.000000
1.000000
1.000000
1.000000
1.000000
1.000000
1.000000
1.000000
1.000000
1.000000
1.000000
1.000000
1.000000
1.000000
1.000000
1.000000
1.000000
1.000000
1.000000
1.000000
1.000000
1.000000
1.000000
1.000000
1.000000
1.000000
1.000000
1.000000
1.000000
1.000000
1.000000
1.000000
1.000000
1.000000
1.000000
1.000000
1.000000
1.000000
1.000000
1.000000
1.000000
1.000000
1.000000
1.000000
1.000000
1.000000
1.000000
1.000000
1.000000
1.000000
1.000000
1.000000
1.000000
1.000000
1.000000
1.000000
1.000000
1.000000
1.000000
1.000000
1.000000
1.000000
1.000000
1.000000
1.000000
1.000000
1.000000
1.000000
1.000000
1.000000
1.000000
1.000000
1.000000
1.000000
1.000000
1.000000
1.000000
1.000000
1.000000
1.000000
1.000000
1.000000
1.000000
1.000000
1.000000
1.000000
1.000000
1.000000
1.000000
1.000000
1.000000
1.000000
1.000000
1.000000
1.000000
1.000000
1.000000
1.000000
1.000000
1.000000
1.000000
1.000000
1.000000
1.000000
1.000000
1.000000
1.000000
1.000000
1.000000
1.000000
1.000000
1.000000
1.000000
1.000000
1.000000
1.000000
1.000000
1.000000
1.000000
1.000000
1.000000
1.000000
1.000000
1.000000
1.000000
1.000000
1.000000
1.000000
1.000000
1.000000
1.000000
1.000000
1.000000
1.000000
1.000000
1.000000
1.000000
1.000000
1.000000
1.000000
1.000000
1.000000
1.000000
1.000000
1.000000
1.000000
1.000000
1.000000
1.000000
1.000000
1.000000
1.000000
1.000000
1.000000
1.000000
1.000000
1.000000
1.000000
1.000000
1.000000
1.000000
1.000000
1.000000
1.000000
1.000000
1.000000
1.000000
1.000000
1.000000
1.000000
1.000000
1.000000
1.000000
1.000000
1.000000
1.000000
1.000000
1.000000
1.000000
1.000000
1.000000
1.000000
1.000000
1.000000
1.000000
1.000000
1.000000
1.000000
1.000000
1.000000
1.000000
1.000000
1.000000
1.000000
1.000000
1.000000
1.000000
1.000000
1.000000
1.000000
1.000000
1.000000
1.000000
1.000000
1.000000
1.000000
1.000000
1.000000
1.000000
1.000000
1.000000
1.000000
1.000000
1.000000
1.000000
1.000000
1.000000
1.000000
1.000000
1.000000
1.000000
1.000000
1.000000
1.000000
1.000000
1.000000
1.000000
1.000000
1.000000
1.000000
1.000000
1.000000
1.000000
1.000000
1.000000
1.000000
1.000000
1.000000
1.000000
1.000000
1.000000
1.000000
1.000000
1.000000
1.000000
1.000000
1.000000
1.000000
1.000000
1.000000
1.000000
1.000000
1.000000
1.000000
1.000000
1.000000
1.000000
1.000000
1.000000
1.000000
1.000000
1.000000
1.000000
1.000000
1.000000
1.000000
1.000000
1.000000
1.000000
1.000000
1.000000
1.000000
1.000000
1.000000
1.000000
1.000000
1.000000
1.000000
1.000000
1.000000
1.000000
1.000000
1.000000
1.000000
1.000000
1.000000
1.000000
1.000000
1.000000
1.000000
1.000000
1.000000
1.000000
1.000000
1.000000
1.000000
1.000000
1.000000
1.000000
1.000000
1.000000
1.000000
1.000000
1.000000
1.000000
1.000000
1.000000
1.000000
1.000000
1.000000
1.000000
1.000000
1.000000
1.000000
1.000000
1.000000
1.000000
1.000000
1.000000
1.000000
1.000000
1.000000
1.000000
1.000000
1.000000
1.000000
1.000000
1.000000
1.000000
1.000000
1.000000
1.000000
1.000000
1.000000
1.000000
1.000000
1.000000
1.000000
1.000000
1.000000
1.000000
1.000000
1.000000
1.000000
1.000000
1.000000
1.000000
1.000000
1.000000
1.000000
1.000000
1.000000
1.000000
1.000000
1.000000
1.000000
1.000000
1.000000
1.000000
1.000000
1.000000
1.000000
1.000000
1.000000
1.000000
1.000000
1.000000
1.000000
1.000000
1.000000
1.000000
1.000000
1.000000
1.000000
1.000000
1.000000
1.000000
1.000000
1.000000
1.000000
1.000000
1.000000
1.000000
1.000000
1.000000
1.000000
1.000000
1.000000
1.000000
1.000000
1.000000
1.000000
1.000000
1.000000
1.000000
1.000000
1.000000
1.000000
1.000000
1.000000
1.000000
1.000000
1.000000
1.000000
1.000000
1.000000
1.000000
1.000000
1.000000
1.000000
1.000000
1.000000
1.000000
1.000000
1.000000
1.000000
1.000000
1.000000
1.000000
1.000000
1.000000
1.000000
1.000000
1.000000
1.000000
1.000000
1.000000
1.000000
1.000000
1.000000
1.000000
1.000000
1.000000
1.000000
1.000000
1.000000
1.000000
1.000000
1.000000
1.000000
1.000000
1.000000
1.000000
1.000000
1.000000
1.000000
1.000000
1.000000
1.000000
1.000000
1.000000
1.000000
1.000000
1.000000
1.000000
1.000000
1.000000
1.000000
1.000000
1.000000
1.000000
1.000000
1.000000
1.000000
1.000000
1.000000
1.000000
1.000000
1.000000
1.000000
1.000000
1.000000
1.000000
1.000000
1.000000
1.000000
1.000000
1.000000
1.000000
1.000000
1.000000
1.000000
1.000000
1.000000
1.000000
1.000000
1.000000
1.000000
1.000000
1.000000
1.000000
1.000000
1.000000
1.000000
1.000000
1.000000
1.000000
1.000000
1.000000
1.000000
1.000000
1.000000
1.000000
1.000000
1.000000
1.000000
1.000000
1.000000
1.000000
1.000000
1.000000
1.000000
1.000000
1.000000
1.000000
1.000000
1.000000
1.000000
1.000000
1.000000
1.000000
1.000000
1.000000
1.000000
1.000000
1.000000
1.000000
1.000000
1.000000
1.000000
1.000000
1.000000
1.000000
1.000000
1.000000
1.000000
1.000000
1.000000
1.000000
1.000000
1.000000
1.000000
1.000000
1.000000
1.000000
1.000000
1.000000
1.000000
1.000000
1.000000
1.000000
1.000000
1.000000
1.000000
1.000000
1.000000
1.000000
1.000000
1.000000
1.000000
1.000000
1.000000
1.000000
1.000000
1.000000
1.000000
1.000000
1.000000
1.000000
1.000000
1.000000
1.000000
1.000000
1.000000
1.000000
1.000000
1.000000
1.000000
1.000000
1.000000
1.000000
1.000000
1.000000
1.000000
1.000000
1.000000
1.000000
1.000000
1.000000
1.000000
1.000000
1.000000
1.000000
1.000000
1.000000
1.000000
1.000000
1.000000
1.000000
1.000000
1.000000
1.000000
1.000000
1.000000
1.000000
1.000000
1.000000
1.000000
1.000000
1.000000
1.000000
1.000000
1.000000
1.000000
1.000000
1.000000
1.000000
1.000000
1.000000
1.000000
1.000000
1.000000
1.000000
1.000000
1.000000
1.000000
1.000000
1.000000
1.000000
1.000000
1.000000
1.000000
1.000000
1.000000
1.000000
1.000000
1.000000
1.000000
1.000000
1.000000
1.000000
1.000000
1.000000
1.000000
1.000000
1.000000
1.000000
1.000000
1.000000
1.000000
1.000000
1.000000
1.000000
1.000000
1.000000
1.000000
1.000000
1.000000
1.000000
1.000000
1.000000
1.000000
1.000000
1.000000
1.000000
1.000000
1.000000
1.000000
1.000000
1.000000
1.000000
1.000000
1.000000
1.000000
1.000000
1.000000
1.000000
1.000000
1.000000
1.000000
1.000000
1.000000
1.000000
1.000000
1.000000
1.000000
1.000000
1.000000
1.000000
1.000000
1.000000
1.000000
1.000000
1.000000
1.000000
1.000000
1.000000
1.000000
1.000000
1.000000
1.000000
1.000000
1.000000
1.000000
1.000000
1.000000
1.000000
1.000000
1.000000
1.000000
1.000000
1.000000
1.000000
1.000000
1.000000
1.000000
1.000000
1.000000
1.000000
1.000000
1.000000
1.000000
1.000000
1.000000
1.000000
1.000000
1.000000
1.000000
1.000000
1.000000
1.000000
1.000000
1.000000
1.000000
1.000000
1.000000
1.000000
1.000000
1.000000
1.000000
1.000000
1.000000
1.000000
1.000000
1.000000
1.000000
1.000000
1.000000
1.000000
1.000000
1.000000
1.000000
1.000000
1.000000
1.000000
1.000000
1.000000
1.000000
1.000000
1.000000
1.000000
1.000000
1.000000
1.000000
1.000000
1.000000
1.000000
1.000000
1.000000
1.000000
1.000000
1.000000
1.000000
1.000000
1.000000
1.000000
1.000000
1.000000
1.000000
1.000000
1.000000
1.000000
1.000000
1.000000
1.000000
1.000000
1.000000
1.000000
1.000000
1.000000
1.000000
1.000000
1.000000
1.000000
1.000000
1.000000
1.000000
1.000000
1.000000
1.000000
1.000000
1.000000
1.000000
1.000000
1.000000
1.000000
1.000000
1.000000
1.000000
1.000000
1.000000
1.000000
1.000000
1.000000
1.000000
1.000000
1.000000
1.000000
1.000000
1.000000
1.000000
1.000000
1.000000
1.000000
1.000000
1.000000
1.000000
1.000000
1.000000
1.000000
1.000000
1.000000
1.000000
1.000000
1.000000
1.000000
1.000000
1.000000
1.000000
1.000000
1.000000
1.000000
1.000000
1.000000
1.000000
1.000000
1.000000
1.000000
1.000000
1.000000
1.000000
1.000000
1.000000
1.000000
1.000000
1.000000
1.000000
1.000000
1.000000
1.000000
1.000000
1.000000
1.000000
1.000000
1.000000
1.000000
1.000000
1.000000
1.000000
1.000000
1.000000
1.000000
1.000000
1.000000
1.000000
1.000000
1.000000
1.000000
1.000000
1.000000
1.000000
1.000000
1.000000
1.000000
1.000000
1.000000
1.000000
1.000000
1.000000
1.000000
1.000000
1.000000
1.000000
1.000000
1.000000
1.000000
1.000000
1.000000
1.000000
1.000000
1.000000
1.000000
1.000000
1.000000
1.000000
1.000000
1.000000
1.000000
1.000000
1.000000
1.000000
1.000000
1.000000
1.000000
1.000000
1.000000
1.000000
1.000000
1.000000
1.000000
1.000000
1.000000
1.000000
1.000000
1.000000
1.000000
1.000000
1.000000
1.000000
1.000000
1.000000
1.000000
1.000000
1.000000
1.000000
1.000000
1.000000
1.000000
1.000000
1.000000
1.000000
1.000000
1.000000
1.000000
1.000000
1.000000
1.000000
1.000000
1.000000
1.000000
1.000000
1.000000
1.000000
1.000000
1.000000
1.000000
1.000000
1.000000
1.000000
1.000000
1.000000
1.000000
1.000000
1.000000
1.000000
1.000000
1.000000
1.000000
1.000000
1.000000
1.000000
1.000000
1.000000
1.000000
1.000000
1.000000
1.000000
1.000000
1.000000
1.000000
1.000000
1.000000
1.000000
1.000000
1.000000
1.000000
1.000000
1.000000
1.000000
1.000000
1.000000
1.000000
1.000000
1.000000
1.000000
1.000000
1.000000
1.000000
1.000000
1.000000
1.000000
1.000000
1.000000
1.000000
1.000000
1.000000
1.000000
1.000000
1.000000
1.000000
1.000000
1.000000
1.000000
1.000000
1.000000
1.000000
1.000000
1.000000
1.000000
1.000000
1.000000
1.000000
1.000000
1.000000
1.000000
1.000000
1.000000
1.000000
1.000000
1.000000
1.000000
1.000000
1.000000
1.000000
1.000000
1.000000
1.000000
1.000000
1.000000
1.000000
1.000000
1.000000
1.000000
1.000000
1.000000
1.000000
1.000000
1.000000
1.000000
1.000000
1.000000
1.000000
1.000000
1.000000
1.000000
1.000000
1.000000
1.000000
1.000000
1.000000
1.000000
1.000000
1.000000
1.000000
1.000000
1.000000
1.000000
1.000000
1.000000
1.000000
1.000000
1.000000
1.000000
1.000000
1.000000
1.000000
1.000000
1.000000
1.000000
1.000000
1.000000
1.000000
1.000000
1.000000
1.000000
1.000000
1.000000
1.000000
1.000000
1.000000
1.000000
1.000000
1.000000
1.000000
1.000000
1.000000
1.000000
1.000000
1.000000
1.000000
1.000000
1.000000
1.000000
1.000000
1.000000
1.000000
1.000000
1.000000
1.000000
1.000000
1.000000
1.000000
1.000000
1.000000
1.000000
1.000000
1.000000
1.000000
1.000000
1.000000
1.000000
1.000000
1.000000
1.000000
1.000000
1.000000
1.000000
1.000000
1.000000
1.000000
1.000000
1.000000
1.000000
1.000000
1.000000
1.000000
1.000000
1.000000
1.000000
1.000000
1.000000
1.000000
1.000000
1.000000
1.000000
1.000000
1.000000
1.000000
1.000000
1.000000
1.000000
1.000000
1.000000
1.000000
1.000000
1.000000
1.000000
1.000000
1.000000
1.000000
1.000000
1.000000
1.000000
1.000000
1.000000
1.000000
1.000000
1.000000
1.000000
1.000000
1.000000
1.000000
1.000000
1.000000
1.000000
1.000000
1.000000
1.000000
1.000000
1.000000
1.000000
1.000000
1.000000
1.000000
1.000000
1.000000
1.000000
1.000000
1.000000
1.000000
1.000000
1.000000
1.000000
1.000000
1.000000
1.000000
1.000000
1.000000
1.000000
1.000000
1.000000
1.000000
1.000000
1.000000
1.000000
1.000000
1.000000
1.000000
1.000000
1.000000
1.000000
1.000000
1.000000
1.000000
1.000000
1.000000
1.000000
1.000000
1.000000
1.000000
1.000000
1.000000
1.000000
1.000000
1.000000
1.000000
1.000000
1.000000
1.000000
1.000000
1.000000
1.000000
1.000000
1.000000
1.000000
1.000000
1.000000
1.000000
1.000000
1.000000
1.000000
1.000000
1.000000
1.000000
1.000000
1.000000
1.000000
1.000000
1.000000
1.000000
1.000000
1.000000
1.000000
1.000000
1.000000
1.000000
1.000000
1.000000
1.000000
1.000000
1.000000
1.000000
1.000000
1.000000
1.000000
1.000000
1.000000
1.000000
1.000000
1.000000
1.000000
1.000000
1.000000
1.000000
1.000000
1.000000
1.000000
1.000000
1.000000
1.000000
1.000000
1.000000
1.000000
1.000000
1.000000
1.000000
1.000000
1.000000
1.000000
1.000000
1.000000
1.000000
1.000000
1.000000
1.000000
1.000000
1.000000
1.000000
1.000000
1.000000
1.000000
1.000000
1.000000
1.000000
1.000000
1.000000
1.000000
1.000000
1.000000
1.000000
1.000000
1.000000
1.000000
1.000000
1.000000
1.000000
1.000000
1.000000
1.000000
1.000000
1.000000
1.000000
1.000000
1.000000
1.000000
1.000000
1.000000
1.000000
1.000000
1.000000
1.000000
1.000000
1.000000
1.000000
1.000000
1.000000
1.000000
1.000000
1.000000
1.000000
1.000000
1.000000
1.000000
1.000000
1.000000
1.000000
1.000000
1.000000
1.000000
1.000000
1.000000
1.000000
1.000000
1.000000
1.000000
1.000000
1.000000
1.000000
1.000000
1.000000
1.000000
1.000000
1.000000
1.000000
1.000000
1.000000
1.000000
1.000000
1.000000
1.000000
1.000000
1.000000
1.000000
1.000000
1.000000
1.000000
1.000000
1.000000
1.000000
1.000000
1.000000
1.000000
1.000000
1.000000
1.000000
1.000000
1.000000
1.000000
1.000000
1.000000
1.000000
1.000000
1.000000
1.000000
1.000000
1.000000
1.000000
1.000000
1.000000
1.000000
1.000000
1.000000
1.000000
1.000000
1.000000
1.000000
1.000000
1.000000
1.000000
1.000000
1.000000
1.000000
1.000000
1.000000
1.000000
1.000000
1.000000
1.000000
1.000000
1.000000
1.000000
1.000000
1.000000
1.000000
1.000000
1.000000
1.000000
1.000000
1.000000
1.000000
1.000000
1.000000
1.000000
1.000000
1.000000
1.000000
1.000000
1.000000
1.000000
1.000000
1.000000
1.000000
1.000000
1.000000
1.000000
1.000000
1.000000
1.000000
1.000000
1.000000
1.000000
1.000000
1.000000
1.000000
1.000000
1.000000
1.000000
1.000000
1.000000
1.000000
1.000000
1.000000
1.000000
1.000000
1.000000
1.000000
1.000000
1.000000
1.000000
1.000000
1.000000
1.000000
1.000000
1.000000
1.000000
1.000000
1.000000
1.000000
1.000000
1.000000
1.000000
1.000000
1.000000
1.000000
1.000000
1.000000
1.000000
1.000000
1.000000
1.000000
1.000000
1.000000
1.000000
1.000000
1.000000
1.000000
1.000000
1.000000
1.000000
1.000000
1.000000
1.000000
1.000000
1.000000
1.000000
1.000000
1.000000
1.000000
1.000000
1.000000
1.000000
1.000000
1.000000
1.000000
1.000000
1.000000
1.000000
1.000000
1.000000
1.000000
1.000000
1.000000
1.000000
1.000000
1.000000
1.000000
1.000000
1.000000
1.000000
1.000000
1.000000
1.000000
1.000000
1.000000
1.000000
1.000000
1.000000
1.000000
1.000000
1.000000
1.000000
1.000000
1.000000
1.000000
1.000000
1.000000
1.000000
1.000000
1.000000
1.000000
1.000000
1.000000
1.000000
1.000000
1.000000
1.000000
1.000000
1.000000
1.000000
1.000000
1.000000
1.000000
1.000000
1.000000
1.000000
1.000000
1.000000
1.000000
1.000000
1.000000
1.000000
1.000000
1.000000
1.000000
1.000000
1.000000
1.000000
1.000000
1.000000
1.000000
1.000000
1.000000
1.000000
1.000000
1.000000
1.000000
1.000000
1.000000
1.000000
1.000000
1.000000
1.000000
1.000000
1.000000
1.000000
1.000000
1.000000
1.000000
1.000000
1.000000
1.000000
1.000000
1.000000
1.000000
1.000000
1.000000
1.000000
1.000000
1.000000
1.000000
1.000000
1.000000
1.000000
1.000000
1.000000
1.000000
1.000000
1.000000
1.000000
1.000000
1.000000
1.000000
1.000000
1.000000
1.000000
1.000000
1.000000
1.000000
1.000000
1.000000
1.000000
1.000000
1.000000
1.000000
1.000000
1.000000
1.000000
1.000000
1.000000
1.000000
1.000000
1.000000
1.000000
1.000000
1.000000
1.000000
1.000000
1.000000
1.000000
1.000000
1.000000
1.000000
1.000000
1.000000
1.000000
1.000000
1.000000
1.000000
1.000000
1.000000
1.000000
1.000000
1.000000
1.000000
1.000000
1.000000
1.000000
1.000000
1.000000
1.000000
1.000000
1.000000
1.000000
1.000000
1.000000
1.000000
1.000000
1.000000
1.000000
1.000000
1.000000
1.000000
1.000000
1.000000
1.000000
1.000000
1.000000
1.000000
1.000000
1.000000
1.000000
1.000000
1.000000
1.000000
1.000000
1.000000
1.000000
1.000000
1.000000
1.000000
1.000000
1.000000
1.000000
1.000000
1.000000
1.000000
1.000000
1.000000
1.000000
1.000000
1.000000
1.000000
1.000000
1.000000
1.000000
1.000000
1.000000
1.000000
1.000000
1.000000
1.000000
1.000000
1.000000
1.000000
1.000000
1.000000
1.000000
1.000000
1.000000
1.000000
1.000000
1.000000
1.000000
1.000000
1.000000
1.000000
1.000000
1.000000
1.000000
1.000000
1.000000
1.000000
1.000000
1.000000
1.000000
1.000000
1.000000
1.000000
1.000000
1.000000
1.000000
1.000000
1.000000
1.000000
1.000000
1.000000
1.000000
1.000000
1.000000
1.000000
1.000000
1.000000
1.000000
1.000000
1.000000
1.000000
1.000000
1.000000
1.000000
1.000000
1.000000
1.000000
1.000000
1.000000
1.000000
1.000000
1.000000
1.000000
1.000000
1.000000
1.000000
1.000000
1.000000
1.000000
1.000000
1.000000
1.000000
1.000000
1.000000
1.000000
1.000000
1.000000
1.000000
1.000000
1.000000
1.000000
1.000000
1.000000
1.000000
1.000000
1.000000
1.000000
1.000000
1.000000
1.000000
1.000000
1.000000
1.000000
1.000000
1.000000
1.000000
1.000000
1.000000
1.000000
1.000000
1.000000
1.000000
1.000000
1.000000
1.000000
1.000000
1.000000
1.000000
1.000000
1.000000
1.000000
1.000000
1.000000
1.000000
1.000000
1.000000
1.000000
1.000000
1.000000
1.000000
1.000000
1.000000
1.000000
1.000000
1.000000
1.000000
1.000000
1.000000
1.000000
1.000000
1.000000
1.000000
1.000000
1.000000
1.000000
1.000000
1.000000
1.000000
1.000000
1.000000
1.000000
1.000000
1.000000
1.000000
1.000000
1.000000
1.000000
1.000000
1.000000
1.000000
1.000000
1.000000
1.000000
1.000000
1.000000
1.000000
1.000000
1.000000
1.000000
1.000000
1.000000
1.000000
1.000000
1.000000
1.000000
1.000000
1.000000
1.000000
1.000000
1.000000
1.000000
1.000000
1.000000
1.000000
1.000000
1.000000
1.000000
1.000000
1.000000
1.000000
1.000000
1.000000
1.000000
1.000000
1.000000
1.000000
1.000000
1.000000
1.000000
1.000000
1.000000
1.000000
1.000000
1.000000
1.000000
1.000000
1.000000
1.000000
1.000000
1.000000
1.000000
1.000000
1.000000
1.000000
1.000000
1.000000
1.000000
1.000000
1.000000
1.000000
1.000000
1.000000
1.000000
1.000000
1.000000
1.000000
1.000000
1.000000
1.000000
1.000000
1.000000
1.000000
1.000000
1.000000
1.000000
1.000000
1.000000
1.000000
1.000000
1.000000
1.000000
1.000000
1.000000
1.000000
1.000000
1.000000
1.000000
1.000000
1.000000
1.000000
1.000000
1.000000
1.000000
1.000000
1.000000
1.000000
1.000000
1.000000
1.000000
1.000000
1.000000
1.000000
1.000000
1.000000
1.000000
1.000000
1.000000
1.000000
1.000000
1.000000
1.000000
1.000000
1.000000
1.000000
1.000000
1.000000
1.000000
1.000000
1.000000
1.000000
1.000000
1.000000
1.000000
1.000000
1.000000
1.000000
1.000000
1.000000
1.000000
1.000000
1.000000
1.000000
1.000000
1.000000
1.000000
1.000000
1.000000
1.000000
1.000000
1.000000
1.000000
1.000000
1.000000
1.000000
1.000000
1.000000
1.000000
1.000000
1.000000
1.000000
1.000000
1.000000
1.000000
1.000000
1.000000
1.000000
1.000000
1.000000
1.000000
1.000000
1.000000
1.000000
1.000000
1.000000
1.000000
1.000000
1.000000
1.000000
1.000000
1.000000
1.000000
1.000000
1.000000
1.000000
1.000000
1.000000
1.000000
1.000000
1.000000
1.000000
1.000000
1.000000
1.000000
1.000000
1.000000
1.000000
1.000000
1.000000
1.000000
1.000000
1.000000
1.000000
1.000000
1.000000
1.000000
1.000000
1.000000
1.000000
1.000000
1.000000
SCALARS	1stPrincipleStrain	float	1
LOOKUP_TABLE	default
0.000000
0.000000
0.000000
0.000000
0.000000
0.000000
0.000000
0.000000
0.000000
0.000000
0.000000
0.000000
0.000000
0.000000
0.000000
0.000000
0.000000
0.000000
0.000000
0.000000
0.000000
0.000000
0.000000
0.000000
0.000000
0.000000
0.000000
0.000000
0.000000
0.000000
0.000000
0.000000
0.000000
0.000000
0.000000
0.000000
0.000000
0.000000
0.000000
0.000000
0.000000
0.000000
0.000000
0.000000
0.000000
0.000000
0.000000
0.000000
0.000000
0.000000
0.000000
0.000000
0.000000
0.000000
0.000000
0.000000
0.000000
0.000000
0.000000
0.000000
0.000000
0.000000
0.000000
0.000000
0.000000
0.000000
0.000000
0.000000
0.000000
0.000000
0.000000
0.000000
0.000000
0.000000
0.000000
0.000000
0.000000
0.000000
0.000000
0.000000
0.000000
0.000000
0.000000
0.000000
0.000000
0.000000
0.000000
0.000000
0.000000
0.000000
0.000000
0.000000
0.000000
0.000000
0.000000
0.000000
0.000000
0.000000
0.000000
0.000000
0.000000
0.000000
0.000000
0.000000
0.000000
0.000000
0.000000
0.000000
0.000000
0.000000
0.000000
0.000000
0.000000
0.000000
0.000000
0.000000
0.000000
0.000000
0.000000
0.000000
0.000000
0.000000
0.000000
0.000000
0.000000
0.000000
0.000000
0.000000
0.000000
0.000000
0.000000
0.000000
0.000000
0.000000
0.000000
0.000000
0.000000
0.000000
0.000000
0.000000
0.000000
0.000000
0.000000
0.000000
0.000000
0.000000
0.000000
0.000000
0.000000
0.000000
0.000000
0.000000
0.000000
0.000000
0.000000
0.000000
0.000000
0.000000
0.000000
0.000000
0.000000
0.000000
0.000000
0.000000
0.000000
0.000000
0.000000
0.000000
0.000000
0.000000
0.000000
0.000000
0.000000
0.000000
0.000000
0.000000
0.000000
0.000000
0.000000
0.000000
0.000000
0.000000
0.000000
0.000000
0.000000
0.000000
0.000000
0.000000
0.000000
0.000000
0.000000
0.000000
0.000000
0.000000
0.000000
0.000000
0.000000
0.000000
0.000000
0.000000
0.000000
0.000000
0.000000
0.000000
0.000000
0.000000
0.000000
0.000000
0.000000
0.000000
0.000000
0.000000
0.000000
0.000000
0.000000
0.000000
0.000000
0.000000
0.000000
0.000000
0.000000
0.000000
0.000000
0.000000
0.000000
0.000000
0.000000
0.000000
0.000000
0.000000
0.000000
0.000000
0.000000
0.000000
0.000000
0.000000
0.000000
0.000000
0.000000
0.000000
0.000000
0.000000
0.000000
0.000000
0.000000
0.000000
0.000000
0.000000
0.000000
0.000000
0.000000
0.000000
0.000000
0.000000
0.000000
0.000000
0.000000
0.000000
0.000000
0.000000
0.000000
0.000000
0.000000
0.000000
0.000000
0.000000
0.000000
0.000000
0.000000
0.000000
0.000000
0.000000
0.000000
0.000000
0.000000
0.000000
0.000000
0.000000
0.000000
0.000000
0.000000
0.000000
0.000000
0.000000
0.000000
0.000000
0.000000
0.000000
0.000000
0.000000
0.000000
0.000000
0.000000
0.000000
0.000000
0.000000
0.000000
0.000000
0.000000
0.000000
0.000000
0.000000
0.000000
0.000000
0.000000
0.000000
0.000000
0.000000
0.000000
0.000000
0.000000
0.000000
0.000000
0.000000
0.000000
0.000000
0.000000
0.000000
0.000000
0.000000
0.000000
0.000000
0.000000
0.000000
0.000000
0.000000
0.000000
0.000000
0.000000
0.000000
0.000000
0.000000
0.000000
0.000000
0.000000
0.000000
0.000000
0.000000
0.000000
0.000000
0.000000
0.000000
0.000000
0.000000
0.000000
0.000000
0.000000
0.000000
0.000000
0.000000
0.000000
0.000000
0.000000
0.000000
0.000000
0.000000
0.000000
0.000000
0.000000
0.000000
0.000000
0.000000
0.000000
0.000000
0.000000
0.000000
0.000000
0.000000
0.000000
0.000000
0.000000
0.000000
0.000000
0.000000
0.000000
0.000000
0.000000
0.000000
0.000000
0.000000
0.000000
0.000000
0.000000
0.000000
0.000000
0.000000
0.000000
0.000000
0.000000
0.000000
0.000000
0.000000
0.000000
0.000000
0.000000
0.000000
0.000000
0.000000
0.000000
0.000000
0.000000
0.000000
0.000000
0.000000
0.000000
0.000000
0.000000
0.000000
0.000000
0.000000
0.000000
0.000000
0.000000
0.000000
0.000000
0.000000
0.000000
0.000000
0.000000
0.000000
0.000000
0.000000
0.000000
0.000000
0.000000
0.000000
0.000000
0.000000
0.000000
0.000000
0.000000
0.000000
0.000000
0.000000
0.000000
0.000000
0.000000
0.000000
0.000000
0.000000
0.000000
0.000000
0.000000
0.000000
0.000000
0.000000
0.000000
0.000000
0.000000
0.000000
0.000000
0.000000
0.000000
0.000000
0.000000
0.000000
0.000000
0.000000
0.000000
0.000000
0.000000
0.000000
0.000000
0.000000
0.000000
0.000000
0.000000
0.000000
0.000000
0.000000
0.000000
0.000000
0.000000
0.000000
0.000000
0.000000
0.000000
0.000000
0.000000
0.000000
0.000000
0.000000
0.000000
0.000000
0.000000
0.000000
0.000000
0.000000
0.000000
0.000000
0.000000
0.000000
0.000000
0.000000
0.000000
0.000000
0.000000
0.000000
0.000000
0.000000
0.000000
0.000000
0.000000
0.000000
0.000000
0.000000
0.000000
0.000000
0.000000
0.000000
0.000000
0.000000
0.000000
0.000000
0.000000
0.000000
0.000000
0.000000
0.000000
0.000000
0.000000
0.000000
0.000000
0.000000
0.000000
0.000000
0.000000
0.000000
0.000000
0.000000
0.000000
0.000000
0.000000
0.000000
0.000000
0.000000
0.000000
0.000000
0.000000
0.000000
0.000000
0.000000
0.000000
0.000000
0.000000
0.000000
0.000000
0.000000
0.000000
0.000000
0.000000
0.000000
0.000000
0.000000
0.000000
0.000000
0.000000
0.000000
0.000000
0.000000
0.000000
0.000000
0.000000
0.000000
0.000000
0.000000
0.000000
0.000000
0.000000
0.000000
0.000000
0.000000
0.000000
0.000000
0.000000
0.000000
0.000000
0.000000
0.000000
0.000000
0.000000
0.000000
0.000000
0.000000
0.000000
0.000000
0.000000
0.000000
0.000000
0.000000
0.000000
0.000000
0.000000
0.000000
0.000000
0.000000
0.000000
0.000000
0.000000
0.000000
0.000000
0.000000
0.000000
0.000000
0.000000
0.000000
0.000000
0.000000
0.000000
0.000000
0.000000
0.000000
0.000000
0.000000
0.000000
0.000000
0.000000
0.000000
0.000000
0.000000
0.000000
0.000000
0.000000
0.000000
0.000000
0.000000
0.000000
0.000000
0.000000
0.000000
0.000000
0.000000
0.000000
0.000000
0.000000
0.000000
0.000000
0.000000
0.000000
0.000000
0.000000
0.000000
0.000000
0.000000
0.000000
0.000000
0.000000
0.000000
0.000000
0.000000
0.000000
0.000000
0.000000
0.000000
0.000000
0.000000
0.000000
0.000000
0.000000
0.000000
0.000000
0.000000
0.000000
0.000000
0.000000
0.000000
0.000000
0.000000
0.000000
0.000000
0.000000
0.000000
0.000000
0.000000
0.000000
0.000000
0.000000
0.000000
0.000000
0.000000
0.000000
0.000000
0.000000
0.000000
0.000000
0.000000
0.000000
0.000000
0.000000
0.000000
0.000000
0.000000
0.000000
0.000000
0.000000
0.000000
0.000000
0.000000
0.000000
0.000000
0.000000
0.000000
0.000000
0.000000
0.000000
0.000000
0.000000
0.000000
0.000000
0.000000
0.000000
0.000000
0.000000
0.000000
0.000000
0.000000
0.000000
0.000000
0.000000
0.000000
0.000000
0.000000
0.000000
0.000000
0.000000
0.000000
0.000000
0.000000
0.000000
0.000000
0.000000
0.000000
0.000000
0.000000
0.000000
0.000000
0.000000
0.000000
0.000000
0.000000
0.000000
0.000000
0.000000
0.000000
0.000000
0.000000
0.000000
0.000000
0.000000
0.000000
0.000000
0.000000
0.000000
0.000000
0.000000
0.000000
0.000000
0.000000
0.000000
0.000000
0.000000
0.000000
0.000000
0.000000
0.000000
0.000000
0.000000
0.000000
0.000000
0.000000
0.000000
0.000000
0.000000
0.000000
0.000000
0.000000
0.000000
0.000000
0.000000
0.000000
0.000000
0.000000
0.000000
0.000000
0.000000
0.000000
0.000000
0.000000
0.000000
0.000000
0.000000
0.000000
0.000000
0.000000
0.000000
0.000000
0.000000
0.000000
0.000000
0.000000
0.000000
0.000000
0.000000
0.000000
0.000000
0.000000
0.000000
0.000000
0.000000
0.000000
0.000000
0.000000
0.000000
0.000000
0.000000
0.000000
0.000000
0.000000
0.000000
0.000000
0.000000
0.000000
0.000000
0.000000
0.000000
0.000000
0.000000
0.000000
0.000000
0.000000
0.000000
0.000000
0.000000
0.000000
0.000000
0.000000
0.000000
0.000000
0.000000
0.000000
0.000000
0.000000
0.000000
0.000000
0.000000
0.000000
0.000000
0.000000
0.000000
0.000000
0.000000
0.000000
0.000000
0.000000
0.000000
0.000000
0.000000
0.000000
0.000000
0.000000
0.000000
0.000000
0.000000
0.000000
0.000000
0.000000
0.000000
0.000000
0.000000
0.000000
0.000000
0.000000
0.000000
0.000000
0.000000
0.000000
0.000000
0.000000
0.000000
0.000000
0.000000
0.000000
0.000000
0.000000
0.000000
0.000000
0.000000
0.000000
0.000000
0.000000
0.000000
0.000000
0.000000
0.000000
0.000000
0.000000
0.000000
0.000000
0.000000
0.000000
0.000000
0.000000
0.000000
0.000000
0.000000
0.000000
0.000000
0.000000
0.000000
0.000000
0.000000
0.000000
0.000000
0.000000
0.000000
0.000000
0.000000
0.000000
0.000000
0.000000
0.000000
0.000000
0.000000
0.000000
0.000000
0.000000
0.000000
0.000000
0.000000
0.000000
0.000000
0.000000
0.000000
0.000000
0.000000
0.000000
0.000000
0.000000
0.000000
0.000000
0.000000
0.000000
0.000000
0.000000
0.000000
0.000000
0.000000
0.000000
0.000000
0.000000
0.000000
0.000000
0.000000
0.000000
0.000000
0.000000
0.000000
0.000000
0.000000
0.000000
0.000000
0.000000
0.000000
0.000000
0.000000
0.000000
0.000000
0.000000
0.000000
0.000000
0.000000
0.000000
0.000000
0.000000
0.000000
0.000000
0.000000
0.000000
0.000000
0.000000
0.000000
0.000000
0.000000
0.000000
0.000000
0.000000
0.000000
0.000000
0.000000
0.000000
0.000000
0.000000
0.000000
0.000000
0.000000
0.000000
0.000000
0.000000
0.000000
0.000000
0.000000
0.000000
0.000000
0.000000
0.000000
0.000000
0.000000
0.000000
0.000000
0.000000
0.000000
0.000000
0.000000
0.000000
0.000000
0.000000
0.000000
0.000000
0.000000
0.000000
0.000000
0.000000
0.000000
0.000000
0.000000
0.000000
0.000000
0.000000
0.000000
0.000000
0.000000
0.000000
0.000000
0.000000
0.000000
0.000000
0.000000
0.000000
0.000000
0.000000
0.000000
0.000000
0.000000
0.000000
0.000000
0.000000
0.000000
0.000000
0.000000
0.000000
0.000000
0.000000
0.000000
0.000000
0.000000
0.000000
0.000000
0.000000
0.000000
0.000000
0.000000
0.000000
0.000000
0.000000
0.000000
0.000000
0.000000
0.000000
0.000000
0.000000
0.000000
0.000000
0.000000
0.000000
0.000000
0.000000
0.000000
0.000000
0.000000
0.000000
0.000000
0.000000
0.000000
0.000000
0.000000
0.000000
0.000000
0.000000
0.000000
0.000000
0.000000
0.000000
0.000000
0.000000
0.000000
0.000000
0.000000
0.000000
0.000000
0.000000
0.000000
0.000000
0.000000
0.000000
0.000000
0.000000
0.000000
0.000000
0.000000
0.000000
0.000000
0.000000
0.000000
0.000000
0.000000
0.000000
0.000000
0.000000
0.000000
0.000000
0.000000
0.000000
0.000000
0.000000
0.000000
0.000000
0.000000
0.000000
0.000000
0.000000
0.000000
0.000000
0.000000
0.000000
0.000000
0.000000
0.000000
0.000000
0.000000
0.000000
0.000000
0.000000
0.000000
0.000000
0.000000
0.000000
0.000000
0.000000
0.000000
0.000000
0.000000
0.000000
0.000000
0.000000
0.000000
0.000000
0.000000
0.000000
0.000000
0.000000
0.000000
0.000000
0.000000
0.000000
0.000000
0.000000
0.000000
0.000000
0.000000
0.000000
0.000000
0.000000
0.000000
0.000000
0.000000
0.000000
0.000000
0.000000
0.000000
0.000000
0.000000
0.000000
0.000000
0.000000
0.000000
0.000000
0.000000
0.000000
0.000000
0.000000
0.000000
0.000000
0.000000
0.000000
0.000000
0.000000
0.000000
0.000000
0.000000
0.000000
0.000000
0.000000
0.000000
0.000000
0.000000
0.000000
0.000000
0.000000
0.000000
0.000000
0.000000
0.000000
0.000000
0.000000
0.000000
0.000000
0.000000
0.000000
0.000000
0.000000
0.000000
0.000000
0.000000
0.000000
0.000000
0.000000
0.000000
0.000000
0.000000
0.000000
0.000000
0.000000
0.000000
0.000000
0.000000
0.000000
0.000000
0.000000
0.000000
0.000000
0.000000
0.000000
0.000000
0.000000
0.000000
0.000000
0.000000
0.000000
0.000000
0.000000
0.000000
0.000000
0.000000
0.000000
0.000000
0.000000
0.000000
0.000000
0.000000
0.000000
0.000000
0.000000
0.000000
0.000000
0.000000
0.000000
0.000000
0.000000
0.000000
0.000000
0.000000
0.000000
0.000000
0.000000
0.000000
0.000000
0.000000
0.000000
0.000000
0.000000
0.000000
0.000000
0.000000
0.000000
0.000000
0.000000
0.000000
0.000000
0.000000
0.000000
0.000000
0.000000
0.000000
0.000000
0.000000
0.000000
0.000000
0.000000
0.000000
0.000000
0.000000
0.000000
0.000000
0.000000
0.000000
0.000000
0.000000
0.000000
0.000000
0.000000
0.000000
0.000000
0.000000
0.000000
0.000000
0.000000
0.000000
0.000000
0.000000
0.000000
0.000000
0.000000
0.000000
0.000000
0.000000
0.000000
0.000000
0.000000
0.000000
0.000000
0.000000
0.000000
0.000000
0.000000
0.000000
0.000000
0.000000
0.000000
0.000000
0.000000
0.000000
0.000000
0.000000
0.000000
0.000000
0.000000
0.000000
0.000000
0.000000
0.000000
0.000000
0.000000
0.000000
0.000000
0.000000
0.000000
0.000000
0.000000
0.000000
0.000000
0.000000
0.000000
0.000000
0.000000
0.000000
0.000000
0.000000
0.000000
0.000000
0.000000
0.000000
0.000000
0.000000
0.000000
0.000000
0.000000
0.000000
0.000000
0.000000
0.000000
0.000000
0.000000
0.000000
0.000000
0.000000
0.000000
0.000000
0.000000
0.000000
0.000000
0.000000
0.000000
0.000000
0.000000
0.000000
0.000000
0.000000
0.000000
0.000000
0.000000
0.000000
0.000000
0.000000
0.000000
0.000000
0.000000
0.000000
0.000000
0.000000
0.000000
0.000000
0.000000
0.000000
0.000000
0.000000
0.000000
0.000000
0.000000
0.000000
0.000000
0.000000
0.000000
0.000000
0.000000
0.000000
0.000000
0.000000
0.000000
0.000000
0.000000
0.000000
0.000000
0.000000
0.000000
0.000000
0.000000
0.000000
0.000000
0.000000
0.000000
0.000000
0.000000
0.000000
0.000000
0.000000
0.000000
0.000000
0.000000
0.000000
0.000000
0.000000
0.000000
0.000000
0.000000
0.000000
0.000000
0.000000
0.000000
0.000000
0.000000
0.000000
0.000000
0.000000
0.000000
0.000000
0.000000
0.000000
0.000000
0.000000
0.000000
0.000000
0.000000
0.000000
0.000000
0.000000
0.000000
0.000000
0.000000
0.000000
0.000000
0.000000
0.000000
0.000000
0.000000
0.000000
0.000000
0.000000
0.000000
0.000000
0.000000
0.000000
0.000000
0.000000
0.000000
0.000000
0.000000
0.000000
0.000000
0.000000
0.000000
0.000000
0.000000
0.000000
0.000000
0.000000
0.000000
0.000000
0.000000
0.000000
0.000000
0.000000
0.000000
0.000000
0.000000
0.000000
0.000000
0.000000
0.000000
0.000000
0.000000
0.000000
0.000000
0.000000
0.000000
0.000000
0.000000
0.000000
0.000000
0.000000
0.000000
0.000000
0.000000
0.000000
0.000000
0.000000
0.000000
0.000000
0.000000
0.000000
0.000000
0.000000
0.000000
0.000000
0.000000
0.000000
0.000000
0.000000
0.000000
0.000000
0.000000
0.000000
0.000000
0.000000
0.000000
0.000000
0.000000
0.000000
0.000000
0.000000
0.000000
0.000000
0.000000
0.000000
0.000000
0.000000
0.000000
0.000000
0.000000
0.000000
0.000000
0.000000
0.000000
0.000000
0.000000
0.000000
0.000000
0.000000
0.000000
0.000000
0.000000
0.000000
0.000000
0.000000
0.000000
0.000000
0.000000
0.000000
0.000000
0.000000
0.000000
0.000000
0.000000
0.000000
0.000000
0.000000
0.000000
0.000000
0.000000
0.000000
0.000000
0.000000
0.000000
0.000000
0.000000
0.000000
0.000000
0.000000
0.000000
0.000000
0.000000
0.000000
0.000000
0.000000
0.000000
0.000000
0.000000
0.000000
0.000000
0.000000
0.000000
0.000000
0.000000
0.000000
0.000000
0.000000
0.000000
0.000000
0.000000
0.000000
0.000000
0.000000
0.000000
0.000000
0.000000
0.000000
0.000000
0.000000
0.000000
0.000000
0.000000
0.000000
0.000000
0.000000
0.000000
0.000000
0.000000
0.000000
0.000000
0.000000
0.000000
0.000000
0.000000
0.000000
0.000000
0.000000
0.000000
0.000000
0.000000
0.000000
0.000000
0.000000
0.000000
0.000000
0.000000
0.000000
0.000000
0.000000
0.000000
0.000000
0.000000
0.000000
0.000000
0.000000
0.000000
0.000000
0.000000
0.000000
0.000000
0.000000
0.000000
0.000000
0.000000
0.000000
0.000000
0.000000
0.000000
0.000000
0.000000
0.000000
0.000000
0.000000
0.000000
0.000000
0.000000
0.000000
0.000000
0.000000
0.000000
0.000000
0.000000
0.000000
0.000000
0.000000
0.000000
0.000000
0.000000
0.000000
0.000000
0.000000
0.000000
0.000000
0.000000
0.000000
0.000000
0.000000
0.000000
0.000000
0.000000
0.000000
0.000000
0.000000
0.000000
0.000000
0.000000
0.000000
0.000000
0.000000
0.000000
0.000000
0.000000
0.000000
0.000000
0.000000
0.000000
0.000000
0.000000
0.000000
0.000000
0.000000
0.000000
0.000000
0.000000
0.000000
0.000000
0.000000
0.000000
0.000000
0.000000
0.000000
0.000000
0.000000
0.000000
0.000000
0.000000
0.000000
0.000000
0.000000
0.000000
0.000000
0.000000
0.000000
0.000000
0.000000
0.000000
0.000000
0.000000
0.000000
0.000000
0.000000
0.000000
0.000000
0.000000
0.000000
0.000000
0.000000
0.000000
0.000000
0.000000
0.000000
0.000000
0.000000
0.000000
0.000000
0.000000
0.000000
0.000000
0.000000
0.000000
0.000000
0.000000
0.000000
0.000000
0.000000
0.000000
0.000000
0.000000
0.000000
0.000000
0.000000
0.000000
0.000000
0.000000
0.000000
0.000000
0.000000
0.000000
0.000000
0.000000
0.000000
0.000000
0.000000
0.000000
0.000000
0.000000
0.000000
0.000000
0.000000
0.000000
0.000000
0.000000
0.000000
0.000000
0.000000
0.000000
0.000000
0.000000
0.000000
0.000000
0.000000
0.000000
0.000000
0.000000
0.000000
0.000000
0.000000
0.000000
0.000000
0.000000
0.000000
0.000000
0.000000
0.000000
0.000000
0.000000
0.000000
0.000000
0.000000
0.000000
0.000000
0.000000
0.000000
0.000000
0.000000
0.000000
0.000000
0.000000
0.000000
0.000000
0.000000
0.000000
0.000000
0.000000
0.000000
0.000000
0.000000
0.000000
0.000000
0.000000
0.000000
0.000000
0.000000
0.000000
0.000000
0.000000
0.000000
0.000000
0.000000
0.000000
0.000000
0.000000
0.000000
0.000000
0.000000
0.000000
0.000000
0.000000
0.000000
0.000000
0.000000
0.000000
0.000000
0.000000
0.000000
0.000000
0.000000
0.000000
0.000000
0.000000
0.000000
0.000000
0.000000
0.000000
0.000000
0.000000
0.000000
0.000000
0.000000
0.000000
0.000000
0.000000
0.000000
0.000000
0.000000
0.000000
0.000000
0.000000
0.000000
0.000000
0.000000
0.000000
0.000000
0.000000
0.000000
0.000000
0.000000
0.000000
0.000000
0.000000
0.000000
0.000000
0.000000
0.000000
0.000000
0.000000
0.000000
0.000000
0.000000
0.000000
0.000000
0.000000
0.000000
0.000000
0.000000
0.000000
0.000000
0.000000
0.000000
0.000000
0.000000
0.000000
0.000000
0.000000
0.000000
0.000000
0.000000
0.000000
0.000000
0.000000
0.000000
0.000000
0.000000
0.000000
0.000000
0.000000
0.000000
0.000000
0.000000
0.000000
0.000000
0.000000
0.000000
0.000000
0.000000
0.000000
0.000000
0.000000
0.000000
0.000000
0.000000
0.000000
0.000000
0.000000
0.000000
0.000000
0.000000
0.000000
0.000000
0.000000
0.000000
0.000000
0.000000
0.000000
0.000000
0.000000
0.000000
0.000000
0.000000
0.000000
0.000000
0.000000
0.000000
0.000000
0.000000
0.000000
0.000000
0.000000
0.000000
0.000000
0.000000
0.000000
0.000000
0.000000
0.000000
0.000000
0.000000
0.000000
0.000000
0.000000
0.000000
0.000000
0.000000
0.000000
0.000000
0.000000
0.000000
0.000000
0.000000
0.000000
0.000000
0.000000
0.000000
0.000000
0.000000
0.000000
0.000000
0.000000
0.000000
0.000000
0.000000
0.000000
0.000000
0.000000
0.000000
0.000000
0.000000
0.000000
0.000000
0.000000
0.000000
0.000000
0.000000
0.000000
0.000000
0.000000
0.000000
0.000000
0.000000
0.000000
0.000000
0.000000
0.000000
0.000000
0.000000
0.000000
0.000000
0.000000
0.000000
0.000000
0.000000
0.000000
0.000000
0.000000
0.000000
0.000000
0.000000
0.000000
0.000000
0.000000
0.000000
0.000000
0.000000
0.000000
0.000000
0.000000
0.000000
0.000000
0.000000
0.000000
0.000000
0.000000
0.000000
0.000000
0.000000
0.000000
0.000000
0.000000
0.000000
0.000000
0.000000
0.000000
0.000000
0.000000
0.000000
0.000000
0.000000
0.000000
0.000000
0.000000
0.000000
0.000000
0.000000
0.000000
0.000000
0.000000
0.000000
0.000000
0.000000
0.000000
0.000000
0.000000
0.000000
0.000000
0.000000
0.000000
0.000000
0.000000
0.000000
0.000000
0.000000
0.000000
0.000000
0.000000
0.000000
0.000000
0.000000
0.000000
0.000000
0.000000
0.000000
0.000000
0.000000
0.000000
0.000000
0.000000
0.000000
0.000000
0.000000
0.000000
0.000000
0.000000
0.000000
0.000000
0.000000
0.000000
0.000000
0.000000
0.000000
0.000000
0.000000
0.000000
0.000000
0.000000
0.000000
0.000000
0.000000
0.000000
0.000000
0.000000
0.000000
0.000000
0.000000
0.000000
0.000000
0.000000
0.000000
0.000000
0.000000
0.000000
0.000000
0.000000
0.000000
0.000000
0.000000
0.000000
0.000000
0.000000
0.000000
0.000000
0.000000
0.000000
0.000000
0.000000
0.000000
0.000000
0.000000
0.000000
0.000000
0.000000
0.000000
0.000000
0.000000
0.000000
0.000000
0.000000
0.000000
0.000000
0.000000
0.000000
0.000000
0.000000
0.000000
0.000000
0.000000
0.000000
0.000000
0.000000
0.000000
0.000000
0.000000
0.000000
0.000000
0.000000
0.000000
0.000000
0.000000
0.000000
0.000000
0.000000
0.000000
0.000000
0.000000
0.000000
0.000000
0.000000
0.000000
0.000000
0.000000
0.000000
0.000000
0.000000
0.000000
0.000000
0.000000
0.000000
0.000000
0.000000
0.000000
0.000000
0.000000
0.000000
0.000000
0.000000
0.000000
0.000000
0.000000
0.000000
0.000000
0.000000
0.000000
0.000000
0.000000
0.000000
0.000000
0.000000
0.000000
0.000000
0.000000
0.000000
0.000000
0.000000
0.000000
0.000000
0.000000
0.000000
0.000000
0.000000
0.000000
0.000000
0.000000
0.000000
0.000000
0.000000
0.000000
0.000000
0.000000
0.000000
0.000000
0.000000
0.000000
0.000000
0.000000
0.000000
0.000000
0.000000
0.000000
0.000000
0.000000
0.000000
0.000000
0.000000
0.000000
0.000000
0.000000
0.000000
0.000000
0.000000
0.000000
0.000000
0.000000
0.000000
0.000000
0.000000
0.000000
0.000000
0.000000
0.000000
0.000000
0.000000
0.000000
0.000000
0.000000
0.000000
0.000000
0.000000
0.000000
0.000000
0.000000
0.000000
0.000000
0.000000
0.000000
0.000000
0.000000
0.000000
0.000000
0.000000
0.000000
0.000000
0.000000
0.000000
0.000000
0.000000
0.000000
0.000000
0.000000
0.000000
0.000000
0.000000
0.000000
0.000000
0.000000
0.000000
0.000000
0.000000
0.000000
0.000000
0.000000
0.000000
0.000000
0.000000
0.000000
0.000000
0.000000
0.000000
0.000000
0.000000
0.000000
0.000000
0.000000
0.000000
0.000000
0.000000
0.000000
0.000000
0.000000
0.000000
0.000000
0.000000
0.000000
0.000000
0.000000
0.000000
0.000000
0.000000
0.000000
0.000000
0.000000
0.000000
0.000000
0.000000
0.000000
0.000000
0.000000
0.000000
0.000000
0.000000
0.000000
0.000000
0.000000
0.000000
0.000000
0.000000
0.000000
0.000000
0.000000
0.000000
0.000000
0.000000
0.000000
0.000000
0.000000
0.000000
0.000000
0.000000
0.000000
0.000000
0.000000
0.000000
0.000000
0.000000
0.000000
0.000000
0.000000
0.000000
0.000000
0.000000
0.000000
0.000000
0.000000
0.000000
0.000000
0.000000
0.000000
0.000000
0.000000
0.000000
0.000000
0.000000
0.000000
0.000000
0.000000
0.000000
0.000000
0.000000
0.000000
0.000000
0.000000
0.000000
0.000000
0.000000
0.000000
0.000000
0.000000
0.000000
0.000000
0.000000
0.000000
0.000000
0.000000
0.000000
0.000000
0.000000
0.000000
0.000000
0.000000
0.000000
0.000000
0.000000
0.000000
0.000000
0.000000
0.000000
0.000000
0.000000
0.000000
0.000000
0.000000
0.000000
0.000000
0.000000
0.000000
0.000000
0.000000
0.000000
0.000000
0.000000
0.000000
0.000000
0.000000
0.000000
0.000000
0.000000
0.000000
0.000000
0.000000
0.000000
0.000000
0.000000
0.000000
0.000000
0.000000
0.000000
0.000000
0.000000
0.000000
0.000000
0.000000
0.000000
0.000000
0.000000
0.000000
0.000000
0.000000
0.000000
0.000000
0.000000
0.000000
0.000000
0.000000
0.000000
0.000000
0.000000
0.000000
0.000000
0.000000
0.000000
0.000000
0.000000
0.000000
0.000000
0.000000
0.000000
0.000000
0.000000
0.000000
0.000000
0.000000
0.000000
0.000000
0.000000
0.000000
0.000000
0.000000
0.000000
0.000000
0.000000
0.000000
0.000000
0.000000
0.000000
0.000000
0.000000
0.000000
0.000000
0.000000
0.000000
0.000000
0.000000
0.000000
0.000000
0.000000
0.000000
0.000000
0.000000
0.000000
0.000000
0.000000
0.000000
0.000000
0.000000
0.000000
0.000000
0.000000
0.000000
0.000000
0.000000
0.000000
0.000000
0.000000
0.000000
0.000000
0.000000
0.000000
0.000000
0.000000
0.000000
0.000000
0.000000
0.000000
0.000000
0.000000
0.000000
0.000000
0.000000
0.000000
0.000000
0.000000
0.000000
0.000000
0.000000
0.000000
0.000000
0.000000
0.000000
0.000000
0.000000
0.000000
0.000000
0.000000
0.000000
0.000000
0.000000
0.000000
0.000000
0.000000
0.000000
0.000000
0.000000
0.000000
0.000000
0.000000
0.000000
0.000000
0.000000
0.000000
0.000000
0.000000
0.000000
0.000000
0.000000
0.000000
0.000000
0.000000
0.000000
0.000000
0.000000
0.000000
0.000000
0.000000
0.000000
0.000000
0.000000
0.000000
0.000000
0.000000
0.000000
0.000000
0.000000
0.000000
0.000000
0.000000
0.000000
0.000000
0.000000
0.000000
0.000000
0.000000
0.000000
0.000000
0.000000
0.000000
0.000000
0.000000
0.000000
0.000000
0.000000
0.000000
0.000000
0.000000
0.000000
0.000000
0.000000
0.000000
0.000000
0.000000
0.000000
0.000000
0.000000
0.000000
0.000000
0.000000
0.000000
0.000000
0.000000
0.000000
0.000000
0.000000
0.000000
0.000000
0.000000
0.000000
0.000000
0.000000
0.000000
0.000000
0.000000
0.000000
0.000000
0.000000
0.000000
0.000000
0.000000
0.000000
0.000000
0.000000
0.000000
0.000000
0.000000
0.000000
0.000000
0.000000
0.000000
0.000000
0.000000
0.000000
0.000000
0.000000
0.000000
0.000000
0.000000
0.000000
0.000000
0.000000
0.000000
0.000000
0.000000
0.000000
0.000000
0.000000
0.000000
0.000000
0.000000
0.000000
0.000000
0.000000
0.000000
0.000000
0.000000
0.000000
0.000000
0.000000
0.000000
0.000000
0.000000
0.000000
0.000000
0.000000
0.000000
0.000000
0.000000
0.000000
0.000000
0.000000
0.000000
0.000000
0.000000
0.000000
0.000000
0.000000
0.000000
0.000000
0.000000
0.000000
0.000000
0.000000
0.000000
0.000000
0.000000
0.000000
0.000000
0.000000
0.000000
0.000000
0.000000
0.000000
0.000000
0.000000
0.000000
0.000000
0.000000
0.000000
0.000000
0.000000
0.000000
0.000000
0.000000
0.000000
0.000000
0.000000
0.000000
0.000000
0.000000
0.000000
0.000000
0.000000
0.000000
0.000000
0.000000
0.000000
0.000000
0.000000
0.000000
0.000000
0.000000
0.000000
0.000000
0.000000
0.000000
0.000000
0.000000
0.000000
0.000000
0.000000
0.000000
0.000000
0.000000
0.000000
0.000000
0.000000
0.000000
0.000000
0.000000
0.000000
0.000000
0.000000
0.000000
0.000000
0.000000
0.000000
0.000000
0.000000
0.000000
0.000000
0.000000
0.000000
0.000000
0.000000
0.000000
0.000000
0.000000
0.000000
0.000000
0.000000
0.000000
0.000000
0.000000
0.000000
0.000000
0.000000
0.000000
0.000000
0.000000
0.000000
0.000000
0.000000
0.000000
0.000000
0.000000
0.000000
0.000000
0.000000
0.000000
0.000000
0.000000
0.000000
0.000000
0.000000
0.000000
0.000000
0.000000
0.000000
0.000000
0.000000
0.000000
0.000000
0.000000
0.000000
0.000000
0.000000
0.000000
0.000000
0.000000
0.000000
0.000000
0.000000
0.000000
0.000000
0.000000
0.000000
0.000000
0.000000
0.000000
0.000000
0.000000
0.000000
0.000000
0.000000
0.000000
0.000000
0.000000
0.000000
0.000000
0.000000
0.000000
0.000000
0.000000
0.000000
0.000000
0.000000
0.000000
0.000000
0.000000
0.000000
0.000000
0.000000
0.000000
0.000000
0.000000
0.000000
0.000000
0.000000
0.000000
0.000000
0.000000
0.000000
0.000000
0.000000
0.000000
0.000000
0.000000
0.000000
0.000000
0.000000
0.000000
0.000000
0.000000
0.000000
0.000000
0.000000
0.000000
0.000000
0.000000
0.000000
0.000000
0.000000
0.000000
0.000000
0.000000
0.000000
0.000000
0.000000
0.000000
0.000000
0.000000
0.000000
0.000000
0.000000
0.000000
0.000000
0.000000
0.000000
0.000000
0.000000
0.000000
0.000000
0.000000
0.000000
0.000000
0.000000
0.000000
0.000000
0.000000
0.000000
0.000000
0.000000
0.000000
0.000000
0.000000
0.000000
0.000000
0.000000
0.000000
0.000000
0.000000
0.000000
0.000000
0.000000
0.000000
0.000000
0.000000
0.000000
0.000000
0.000000
0.000000
0.000000
0.000000
0.000000
0.000000
0.000000
0.000000
0.000000
0.000000
0.000000
0.000000
0.000000
0.000000
0.000000
0.000000
0.000000
0.000000
0.000000
0.000000
0.000000
0.000000
0.000000
0.000000
0.000000
0.000000
0.000000
0.000000
0.000000
0.000000
0.000000
0.000000
0.000000
0.000000
0.000000
0.000000
0.000000
0.000000
0.000000
0.000000
0.000000
0.000000
0.000000
0.000000
0.000000
0.000000
0.000000
0.000000
0.000000
0.000000
0.000000
0.000000
0.000000
0.000000
0.000000
0.000000
0.000000
0.000000
0.000000
0.000000
0.000000
0.000000
0.000000
0.000000
0.000000
0.000000
0.000000
0.000000
0.000000
0.000000
0.000000
0.000000
0.000000
0.000000
0.000000
0.000000
0.000000
0.000000
0.000000
0.000000
0.000000
0.000000
0.000000
0.000000
0.000000
0.000000
0.000000
0.000000
0.000000
0.000000
0.000000
0.000000
0.000000
0.000000
0.000000
0.000000
0.000000
0.000000
0.000000
0.000000
0.000000
0.000000
0.000000
0.000000
0.000000
0.000000
0.000000
0.000000
0.000000
0.000000
0.000000
0.000000
0.000000
0.000000
0.000000
0.000000
0.000000
0.000000
0.000000
0.000000
0.000000
0.000000
0.000000
0.000000
0.000000
0.000000
0.000000
0.000000
0.000000
0.000000
0.000000
0.000000
0.000000
0.000000
0.000000
0.000000
0.000000
0.000000
0.000000
0.000000
0.000000
0.000000
0.000000
0.000000
0.000000
0.000000
0.000000
0.000000
0.000000
0.000000
0.000000
0.000000
0.000000
0.000000
0.000000
0.000000
0.000000
0.000000
0.000000
0.000000
0.000000
0.000000
0.000000
0.000000
0.000000
0.000000
0.000000
0.000000
0.000000
0.000000
0.000000
0.000000
0.000000
0.000000
0.000000
0.000000
0.000000
0.000000
0.000000
0.000000
0.000000
0.000000
0.000000
0.000000
0.000000
0.000000
0.000000
0.000000
0.000000
0.000000
0.000000
0.000000
0.000000
0.000000
0.000000
0.000000
0.000000
0.000000
0.000000
0.000000
0.000000
0.000000
0.000000
0.000000
0.000000
0.000000
0.000000
0.000000
0.000000
0.000000
0.000000
0.000000
0.000000
0.000000
0.000000
0.000000
0.000000
0.000000
0.000000
0.000000
0.000000
0.000000
0.000000
0.000000
0.000000
0.000000
0.000000
0.000000
0.000000
0.000000
0.000000
0.000000
0.000000
0.000000
0.000000
0.000000
0.000000
0.000000
0.000000
0.000000
0.000000
0.000000
0.000000
0.000000
0.000000
0.000000
0.000000
0.000000
0.000000
0.000000
0.000000
0.000000
0.000000
0.000000
0.000000
0.000000
0.000000
0.000000
0.000000
0.000000
0.000000
0.000000
0.000000
0.000000
0.000000
0.000000
0.000000
0.000000
0.000000
0.000000
0.000000
0.000000
0.000000
0.000000
0.000000
0.000000
0.000000
0.000000
0.000000
0.000000
0.000000
0.000000
0.000000
0.000000
0.000000
0.000000
0.000000
0.000000
0.000000
0.000000
0.000000
0.000000
0.000000
0.000000
0.000000
0.000000
0.000000
0.000000
0.000000
0.000000
0.000000
0.000000
0.000000
0.000000
0.000000
0.000000
0.000000
0.000000
0.000000
0.000000
0.000000
0.000000
0.000000
0.000000
0.000000
0.000000
0.000000
0.000000
0.000000
0.000000
0.000000
0.000000
0.000000
0.000000
0.000000
0.000000
0.000000
0.000000
0.000000
0.000000
0.000000
0.000000
0.000000
0.000000
0.000000
0.000000
0.000000
0.000000
0.000000
0.000000
0.000000
0.000000
0.000000
0.000000
0.000000
0.000000
0.000000
0.000000
0.000000
0.000000
0.000000
0.000000
0.000000
0.000000
0.000000
0.000000
0.000000
0.000000
0.000000
0.000000
0.000000
0.000000
0.000000
0.000000
0.000000
0.000000
0.000000
0.000000
0.000000
0.000000
0.000000
0.000000
0.000000
0.000000
0.000000
0.000000
0.000000
0.000000
0.000000
0.000000
0.000000
0.000000
0.000000
0.000000
0.000000
0.000000
0.000000
0.000000
0.000000
0.000000
0.000000
0.000000
0.000000
0.000000
0.000000
0.000000
0.000000
0.000000
0.000000
0.000000
0.000000
0.000000
0.000000
0.000000
0.000000
0.000000
0.000000
0.000000
0.000000
0.000000
0.000000
0.000000
0.000000
0.000000
0.000000
0.000000
0.000000
0.000000
0.000000
0.000000
0.000000
0.000000
0.000000
0.000000
0.000000
0.000000
0.000000
0.000000
0.000000
0.000000
0.000000
0.000000
0.000000
0.000000
0.000000
0.000000
0.000000
0.000000
0.000000
0.000000
0.000000
0.000000
0.000000
0.000000
0.000000
0.000000
0.000000
0.000000
0.000000
0.000000
0.000000
0.000000
0.000000
0.000000
0.000000
0.000000
0.000000
0.000000
0.000000
0.000000
0.000000
0.000000
0.000000
0.000000
0.000000
0.000000
0.000000
0.000000
0.000000
0.000000
0.000000
0.000000
0.000000
0.000000
0.000000
0.000000
0.000000
0.000000
0.000000
0.000000
0.000000
0.000000
0.000000
0.000000
0.000000
0.000000
0.000000
0.000000
0.000000
0.000000
0.000000
0.000000
0.000000
0.000000
0.000000
0.000000
0.000000
0.000000
0.000000
0.000000
0.000000
0.000000
0.000000
0.000000
0.000000
0.000000
0.000000
0.000000
0.000000
0.000000
0.000000
0.000000
0.000000
0.000000
0.000000
0.000000
0.000000
0.000000
0.000000
0.000000
0.000000
0.000000
0.000000
0.000000
0.000000
0.000000
0.000000
0.000000
0.000000
0.000000
0.000000
0.000000
0.000000
0.000000
0.000000
0.000000
0.000000
0.000000
0.000000
0.000000
0.000000
0.000000
0.000000
0.000000
0.000000
0.000000
0.000000
0.000000
0.000000
0.000000
0.000000
0.000000
0.000000
0.000000
0.000000
0.000000
0.000000
0.000000
0.000000
0.000000
0.000000
0.000000
0.000000
0.000000
0.000000
0.000000
0.000000
0.000000
0.000000
0.000000
0.000000
0.000000
0.000000
0.000000
0.000000
0.000000
0.000000
0.000000
0.000000
0.000000
0.000000
0.000000
0.000000
0.000000
0.000000
0.000000
0.000000
0.000000
0.000000
0.000000
0.000000
0.000000
0.000000
0.000000
0.000000
0.000000
0.000000
0.000000
0.000000
0.000000
0.000000
0.000000
0.000000
0.000000
0.000000
0.000000
0.000000
0.000000
0.000000
0.000000
0.000000
0.000000
0.000000
0.000000
0.000000
0.000000
0.000000
0.000000
0.000000
0.000000
0.000000
0.000000
0.000000
0.000000
0.000000
0.000000
0.000000
0.000000
0.000000
0.000000
0.000000
0.000000
0.000000
0.000000
0.000000
0.000000
0.000000
0.000000
0.000000
0.000000
0.000000
0.000000
0.000000
0.000000
0.000000
0.000000
0.000000
0.000000
0.000000
0.000000
0.000000
0.000000
0.000000
0.000000
0.000000
0.000000
0.000000
0.000000
0.000000
0.000000
0.000000
0.000000
0.000000
0.000000
0.000000
0.000000
0.000000
0.000000
0.000000
0.000000
0.000000
0.000000
0.000000
0.000000
0.000000
0.000000
0.000000
0.000000
0.000000
0.000000
0.000000
0.000000
0.000000
0.000000
0.000000
0.000000
0.000000
0.000000
0.000000
0.000000
0.000000
0.000000
0.000000
0.000000
0.000000
0.000000
0.000000
0.000000
0.000000
0.000000
0.000000
0.000000
0.000000
0.000000
0.000000
0.000000
0.000000
0.000000
0.000000
0.000000
0.000000
0.000000
0.000000
0.000000
0.000000
0.000000
0.000000
0.000000
0.000000
0.000000
0.000000
0.000000
0.000000
0.000000
0.000000
0.000000
0.000000
0.000000
0.000000
0.000000
0.000000
0.000000
0.000000
0.000000
0.000000
0.000000
0.000000
0.000000
0.000000
0.000000
0.000000
0.000000
0.000000
0.000000
0.000000
0.000000
0.000000
0.000000
0.000000
0.000000
0.000000
0.000000
0.000000
0.000000
0.000000
0.000000
0.000000
0.000000
0.000000
0.000000
0.000000
0.000000
0.000000
0.000000
0.000000
0.000000
0.000000
0.000000
0.000000
0.000000
0.000000
0.000000
0.000000
0.000000
0.000000
0.000000
0.000000
0.000000
0.000000
0.000000
0.000000
0.000000
0.000000
0.000000
0.000000
0.000000
0.000000
0.000000
0.000000
0.000000
0.000000
0.000000
0.000000
0.000000
0.000000
0.000000
0.000000
0.000000
0.000000
0.000000
0.000000
0.000000
0.000000
0.000000
0.000000
0.000000
0.000000
0.000000
0.000000
0.000000
0.000000
0.000000
0.000000
0.000000
0.000000
0.000000
0.000000
0.000000
0.000000
0.000000
0.000000
0.000000
0.000000
0.000000
0.000000
0.000000
0.000000
0.000000
0.000000
0.000000
0.000000
0.000000
0.000000
0.000000
0.000000
0.000000
0.000000
0.000000
0.000000
0.000000
0.000000
0.000000
0.000000
0.000000
0.000000
0.000000
0.000000
0.000000
0.000000
0.000000
0.000000
0.000000
0.000000
0.000000
0.000000
0.000000
0.000000
0.000000
0.000000
0.000000
0.000000
0.000000
0.000000
0.000000
0.000000
0.000000
0.000000
0.000000
0.000000
0.000000
0.000000
0.000000
0.000000
0.000000
0.000000
0.000000
0.000000
0.000000
0.000000
0.000000
0.000000
0.000000
0.000000
0.000000
0.000000
0.000000
0.000000
0.000000
0.000000
0.000000
0.000000
0.000000
0.000000
0.000000
0.000000
0.000000
0.000000
0.000000
0.000000
0.000000
0.000000
0.000000
0.000000
0.000000
0.000000
0.000000
0.000000
0.000000
0.000000
0.000000
0.000000
0.000000
0.000000
0.000000
0.000000
0.000000
0.000000
0.000000
0.000000
0.000000
0.000000
0.000000
0.000000
0.000000
0.000000
0.000000
0.000000
0.000000
0.000000
0.000000
0.000000
0.000000
0.000000
0.000000
0.000000
0.000000
0.000000
0.000000
0.000000
0.000000
0.000000
0.000000
0.000000
0.000000
0.000000
0.000000
0.000000
0.000000
0.000000
0.000000
0.000000
0.000000
0.000000
0.000000
0.000000
0.000000
0.000000
0.000000
0.000000
0.000000
0.000000
0.000000
0.000000
0.000000
0.000000
0.000000
0.000000
0.000000
0.000000
0.000000
0.000000
0.000000
0.000000
0.000000
0.000000
0.000000
0.000000
0.000000
0.000000
0.000000
0.000000
0.000000
0.000000
0.000000
0.000000
0.000000
0.000000
0.000000
0.000000
0.000000
0.000000
0.000000
0.000000
0.000000
0.000000
0.000000
0.000000
0.000000
0.000000
0.000000
0.000000
0.000000
0.000000
0.000000
0.000000
0.000000
0.000000
0.000000
0.000000
0.000000
0.000000
0.000000
0.000000
0.000000
0.000000
0.000000
0.000000
0.000000
0.000000
0.000000
0.000000
0.000000
0.000000
0.000000
0.000000
0.000000
0.000000
0.000000
0.000000
0.000000
0.000000
0.000000
0.000000
0.000000
0.000000
0.000000
0.000000
0.000000
0.000000
0.000000
0.000000
0.000000
0.000000
0.000000
0.000000
0.000000
0.000000
0.000000
0.000000
0.000000
0.000000
0.000000
0.000000
0.000000
0.000000
0.000000
0.000000
0.000000
0.000000
0.000000
0.000000
0.000000
0.000000
0.000000
0.000000
0.000000
0.000000
0.000000
0.000000
0.000000
0.000000
0.000000
0.000000
0.000000
0.000000
0.000000
0.000000
0.000000
0.000000
0.000000
0.000000
0.000000
0.000000
0.000000
0.000000
0.000000
0.000000
0.000000
0.000000
0.000000
0.000000
0.000000
0.000000
0.000000
0.000000
0.000000
0.000000
0.000000
0.000000
0.000000
0.000000
0.000000
0.000000
0.000000
0.000000
0.000000
0.000000
0.000000
0.000000
0.000000
0.000000
0.000000
0.000000
0.000000
0.000000
0.000000
0.000000
0.000000
0.000000
0.000000
0.000000
0.000000
0.000000
0.000000
0.000000
0.000000
0.000000
0.000000
0.000000
0.000000
0.000000
0.000000
0.000000
0.000000
0.000000
0.000000
0.000000
0.000000
0.000000
0.000000
0.000000
0.000000
0.000000
0.000000
0.000000
0.000000
0.000000
0.000000
0.000000
0.000000
0.000000
0.000000
0.000000
0.000000
0.000000
0.000000
0.000000
0.000000
0.000000
0.000000
0.000000
0.000000
0.000000
0.000000
0.000000
0.000000
0.000000
0.000000
0.000000
0.000000
0.000000
0.000000
0.000000
0.000000
0.000000
0.000000
0.000000
0.000000
0.000000
0.000000
0.000000
0.000000
0.000000
0.000000
0.000000
0.000000
0.000000
0.000000
0.000000
0.000000
0.000000
0.000000
0.000000
0.000000
0.000000
0.000000
0.000000
0.000000
0.000000
0.000000
0.000000
0.000000
0.000000
0.000000
0.000000
0.000000
0.000000
0.000000
0.000000
0.000000
0.000000
0.000000
0.000000
0.000000
0.000000
0.000000
0.000000
0.000000
0.000000
0.000000
0.000000
0.000000
0.000000
0.000000
0.000000
0.000000
0.000000
0.000000
0.000000
0.000000
0.000000
0.000000
0.000000
0.000000
0.000000
0.000000
0.000000
0.000000
0.000000
0.000000
0.000000
0.000000
0.000000
0.000000
0.000000
0.000000
0.000000
0.000000
0.000000
0.000000
0.000000
0.000000
0.000000
0.000000
0.000000
0.000000
0.000000
0.000000
0.000000
0.000000
0.000000
0.000000
0.000000
0.000000
0.000000
0.000000
0.000000
0.000000
0.000000
0.000000
0.000000
0.000000
0.000000
0.000000
0.000000
0.000000
0.000000
0.000000
0.000000
0.000000
0.000000
0.000000
0.000000
0.000000
0.000000
0.000000
0.000000
0.000000
0.000000
0.000000
0.000000
0.000000
0.000000
0.000000
0.000000
0.000000
0.000000
0.000000
0.000000
0.000000
0.000000
0.000000
0.000000
0.000000
0.000000
0.000000
0.000000
0.000000
0.000000
0.000000
0.000000
0.000000
0.000000
0.000000
0.000000
0.000000
0.000000
0.000000
0.000000
0.000000
0.000000
0.000000
0.000000
0.000000
0.000000
0.000000
0.000000
0.000000
0.000000
0.000000
0.000000
0.000000
0.000000
0.000000
0.000000
0.000000
0.000000
0.000000
0.000000
0.000000
0.000000
0.000000
0.000000
0.000000
0.000000
0.000000
0.000000
0.000000
0.000000
0.000000
0.000000
0.000000
0.000000
0.000000
0.000000
0.000000
0.000000
0.000000
0.000000
0.000000
0.000000
0.000000
0.000000
0.000000
0.000000
0.000000
0.000000
0.000000
0.000000
0.000000
0.000000
0.000000
0.000000
0.000000
0.000000
0.000000
0.000000
0.000000
0.000000
0.000000
0.000000
0.000000
0.000000
0.000000
0.000000
0.000000
0.000000
0.000000
0.000000
0.000000
0.000000
0.000000
0.000000
0.000000
0.000000
0.000000
0.000000
0.000000
0.000000
0.000000
0.000000
0.000000
0.000000
0.000000
0.000000
0.000000
0.000000
0.000000
0.000000
0.000000
0.000000
0.000000
0.000000
0.000000
0.000000
0.000000
0.000000
0.000000
0.000000
0.000000
0.000000
0.000000
0.000000
0.000000
0.000000
0.000000
0.000000
0.000000
0.000000
0.000000
0.000000
0.000000
0.000000
0.000000
0.000000
0.000000
0.000000
0.000000
0.000000
0.000000
0.000000
0.000000
0.000000
0.000000
0.000000
0.000000
0.000000
0.000000
0.000000
0.000000
0.000000
0.000000
0.000000
0.000000
0.000000
0.000000
0.000000
0.000000
0.000000
0.000000
0.000000
0.000000
0.000000
0.000000
0.000000
0.000000
0.000000
0.000000
0.000000
0.000000
0.000000
0.000000
0.000000
0.000000
0.000000
0.000000
0.000000
0.000000
0.000000
0.000000
0.000000
0.000000
0.000000
0.000000
0.000000
0.000000
0.000000
0.000000
0.000000
0.000000
0.000000
0.000000
0.000000
0.000000
0.000000
0.000000
0.000000
0.000000
0.000000
0.000000
0.000000
0.000000
0.000000
0.000000
0.000000
0.000000
0.000000
0.000000
0.000000
0.000000
0.000000
0.000000
0.000000
0.000000
0.000000
0.000000
0.000000
0.000000
0.000000
0.000000
0.000000
0.000000
0.000000
0.000000
0.000000
0.000000
0.000000
0.000000
0.000000
0.000000
0.000000
0.000000
0.000000
0.000000
0.000000
0.000000
0.000000
0.000000
0.000000
0.000000
0.000000
0.000000
0.000000
0.000000
0.000000
0.000000
0.000000
0.000000
0.000000
0.000000
0.000000
0.000000
0.000000
0.000000
0.000000
0.000000
0.000000
0.000000
0.000000
0.000000
0.000000
0.000000
0.000000
0.000000
0.000000
0.000000
0.000000
0.000000
0.000000
0.000000
0.000000
0.000000
0.000000
0.000000
0.000000
0.000000
0.000000
0.000000
0.000000
0.000000
0.000000
0.000000
0.000000
0.000000
0.000000
0.000000
0.000000
0.000000
0.000000
0.000000
0.000000
0.000000
0.000000
0.000000
0.000000
0.000000
0.000000
0.000000
0.000000
0.000000
0.000000
0.000000
0.000000
0.000000
0.000000
0.000000
0.000000
0.000000
0.000000
0.000000
0.000000
0.000000
0.000000
0.000000
0.000000
0.000000
0.000000
0.000000
0.000000
0.000000
0.000000
0.000000
0.000000
0.000000
0.000000
0.000000
0.000000
0.000000
0.000000
0.000000
0.000000
0.000000
0.000000
0.000000
0.000000
0.000000
0.000000
0.000000
0.000000
0.000000
0.000000
0.000000
0.000000
0.000000
0.000000
0.000000
0.000000
0.000000
0.000000
0.000000
0.000000
0.000000
0.000000
0.000000
0.000000
0.000000
0.000000
0.000000
0.000000
0.000000
0.000000
0.000000
0.000000
0.000000
0.000000
0.000000
0.000000
0.000000
0.000000
0.000000
0.000000
0.000000
0.000000
0.000000
0.000000
0.000000
0.000000
0.000000
0.000000
0.000000
0.000000
0.000000
0.000000
0.000000
0.000000
0.000000
0.000000
0.000000
0.000000
0.000000
0.000000
0.000000
0.000000
0.000000
0.000000
0.000000
0.000000
0.000000
0.000000
0.000000
0.000000
0.000000
0.000000
0.000000
0.000000
0.000000
0.000000
0.000000
0.000000
0.000000
0.000000
0.000000
0.000000
0.000000
0.000000
0.000000
0.000000
0.000000
0.000000
0.000000
0.000000
0.000000
0.000000
0.000000
0.000000
0.000000
0.000000
0.000000
0.000000
0.000000
0.000000
0.000000
0.000000
0.000000
0.000000
0.000000
0.000000
0.000000
0.000000
0.000000
0.000000
0.000000
0.000000
0.000000
0.000000
0.000000
0.000000
0.000000
0.000000
0.000000
0.000000
0.000000
0.000000
0.000000
0.000000
0.000000
0.000000
0.000000
0.000000
0.000000
0.000000
0.000000
0.000000
0.000000
0.000000
0.000000
0.000000
0.000000
0.000000
0.000000
0.000000
0.000000
0.000000
0.000000
0.000000
0.000000
0.000000
0.000000
0.000000
0.000000
0.000000
0.000000
0.000000
0.000000
0.000000
0.000000
0.000000
0.000000
0.000000
0.000000
0.000000
0.000000
0.000000
0.000000
0.000000
0.000000
0.000000
0.000000
0.000000
0.000000
0.000000
0.000000
0.000000
0.000000
0.000000
0.000000
0.000000
0.000000
0.000000
0.000000
0.000000
0.000000
0.000000
0.000000
0.000000
0.000000
0.000000
0.000000
0.000000
0.000000
0.000000
0.000000
0.000000
0.000000
0.000000
0.000000
0.000000
0.000000
0.000000
0.000000
0.000000
0.000000
0.000000
0.000000
0.000000
0.000000
0.000000
0.000000
0.000000
0.000000
0.000000
0.000000
0.000000
0.000000
0.000000
0.000000
0.000000
0.000000
SCALARS	2ndPrincipleStrain	float	1
LOOKUP_TABLE	default
0.000000
0.000000
0.000000
0.000000
0.000000
0.000000
0.000000
0.000000
0.000000
0.000000
0.000000
0.000000
0.000000
0.000000
0.000000
0.000000
0.000000
0.000000
0.000000
0.000000
0.000000
0.000000
0.000000
0.000000
0.000000
0.000000
0.000000
0.000000
0.000000
0.000000
0.000000
0.000000
0.000000
0.000000
0.000000
0.000000
0.000000
0.000000
0.000000
0.000000
0.000000
0.000000
0.000000
0.000000
0.000000
0.000000
0.000000
0.000000
0.000000
0.000000
0.000000
0.000000
0.000000
0.000000
0.000000
0.000000
0.000000
0.000000
0.000000
0.000000
0.000000
0.000000
0.000000
0.000000
0.000000
0.000000
0.000000
0.000000
0.000000
0.000000
0.000000
0.000000
0.000000
0.000000
0.000000
0.000000
0.000000
0.000000
0.000000
0.000000
0.000000
0.000000
0.000000
0.000000
0.000000
0.000000
0.000000
0.000000
0.000000
0.000000
0.000000
0.000000
0.000000
0.000000
0.000000
0.000000
0.000000
0.000000
0.000000
0.000000
0.000000
0.000000
0.000000
0.000000
0.000000
0.000000
0.000000
0.000000
0.000000
0.000000
0.000000
0.000000
0.000000
0.000000
0.000000
0.000000
0.000000
0.000000
0.000000
0.000000
0.000000
0.000000
0.000000
0.000000
0.000000
0.000000
0.000000
0.000000
0.000000
0.000000
0.000000
0.000000
0.000000
0.000000
0.000000
0.000000
0.000000
0.000000
0.000000
0.000000
0.000000
0.000000
0.000000
0.000000
0.000000
0.000000
0.000000
0.000000
0.000000
0.000000
0.000000
0.000000
0.000000
0.000000
0.000000
0.000000
0.000000
0.000000
0.000000
0.000000
0.000000
0.000000
0.000000
0.000000
0.000000
0.000000
0.000000
0.000000
0.000000
0.000000
0.000000
0.000000
0.000000
0.000000
0.000000
0.000000
0.000000
0.000000
0.000000
0.000000
0.000000
0.000000
0.000000
0.000000
0.000000
0.000000
0.000000
0.000000
0.000000
0.000000
0.000000
0.000000
0.000000
0.000000
0.000000
0.000000
0.000000
0.000000
0.000000
0.000000
0.000000
0.000000
0.000000
0.000000
0.000000
0.000000
0.000000
0.000000
0.000000
0.000000
0.000000
0.000000
0.000000
0.000000
0.000000
0.000000
0.000000
0.000000
0.000000
0.000000
0.000000
0.000000
0.000000
0.000000
0.000000
0.000000
0.000000
0.000000
0.000000
0.000000
0.000000
0.000000
0.000000
0.000000
0.000000
0.000000
0.000000
0.000000
0.000000
0.000000
0.000000
0.000000
0.000000
0.000000
0.000000
0.000000
0.000000
0.000000
0.000000
0.000000
0.000000
0.000000
0.000000
0.000000
0.000000
0.000000
0.000000
0.000000
0.000000
0.000000
0.000000
0.000000
0.000000
0.000000
0.000000
0.000000
0.000000
0.000000
0.000000
0.000000
0.000000
0.000000
0.000000
0.000000
0.000000
0.000000
0.000000
0.000000
0.000000
0.000000
0.000000
0.000000
0.000000
0.000000
0.000000
0.000000
0.000000
0.000000
0.000000
0.000000
0.000000
0.000000
0.000000
0.000000
0.000000
0.000000
0.000000
0.000000
0.000000
0.000000
0.000000
0.000000
0.000000
0.000000
0.000000
0.000000
0.000000
0.000000
0.000000
0.000000
0.000000
0.000000
0.000000
0.000000
0.000000
0.000000
0.000000
0.000000
0.000000
0.000000
0.000000
0.000000
0.000000
0.000000
0.000000
0.000000
0.000000
0.000000
0.000000
0.000000
0.000000
0.000000
0.000000
0.000000
0.000000
0.000000
0.000000
0.000000
0.000000
0.000000
0.000000
0.000000
0.000000
0.000000
0.000000
0.000000
0.000000
0.000000
0.000000
0.000000
0.000000
0.000000
0.000000
0.000000
0.000000
0.000000
0.000000
0.000000
0.000000
0.000000
0.000000
0.000000
0.000000
0.000000
0.000000
0.000000
0.000000
0.000000
0.000000
0.000000
0.000000
0.000000
0.000000
0.000000
0.000000
0.000000
0.000000
0.000000
0.000000
0.000000
0.000000
0.000000
0.000000
0.000000
0.000000
0.000000
0.000000
0.000000
0.000000
0.000000
0.000000
0.000000
0.000000
0.000000
0.000000
0.000000
0.000000
0.000000
0.000000
0.000000
0.000000
0.000000
0.000000
0.000000
0.000000
0.000000
0.000000
0.000000
0.000000
0.000000
0.000000
0.000000
0.000000
0.000000
0.000000
0.000000
0.000000
0.000000
0.000000
0.000000
0.000000
0.000000
0.000000
0.000000
0.000000
0.000000
0.000000
0.000000
0.000000
0.000000
0.000000
0.000000
0.000000
0.000000
0.000000
0.000000
0.000000
0.000000
0.000000
0.000000
0.000000
0.000000
0.000000
0.000000
0.000000
0.000000
0.000000
0.000000
0.000000
0.000000
0.000000
0.000000
0.000000
0.000000
0.000000
0.000000
0.000000
0.000000
0.000000
0.000000
0.000000
0.000000
0.000000
0.000000
0.000000
0.000000
0.000000
0.000000
0.000000
0.000000
0.000000
0.000000
0.000000
0.000000
0.000000
0.000000
0.000000
0.000000
0.000000
0.000000
0.000000
0.000000
0.000000
0.000000
0.000000
0.000000
0.000000
0.000000
0.000000
0.000000
0.000000
0.000000
0.000000
0.000000
0.000000
0.000000
0.000000
0.000000
0.000000
0.000000
0.000000
0.000000
0.000000
0.000000
0.000000
0.000000
0.000000
0.000000
0.000000
0.000000
0.000000
0.000000
0.000000
0.000000
0.000000
0.000000
0.000000
0.000000
0.000000
0.000000
0.000000
0.000000
0.000000
0.000000
0.000000
0.000000
0.000000
0.000000
0.000000
0.000000
0.000000
0.000000
0.000000
0.000000
0.000000
0.000000
0.000000
0.000000
0.000000
0.000000
0.000000
0.000000
0.000000
0.000000
0.000000
0.000000
0.000000
0.000000
0.000000
0.000000
0.000000
0.000000
0.000000
0.000000
0.000000
0.000000
0.000000
0.000000
0.000000
0.000000
0.000000
0.000000
0.000000
0.000000
0.000000
0.000000
0.000000
0.000000
0.000000
0.000000
0.000000
0.000000
0.000000
0.000000
0.000000
0.000000
0.000000
0.000000
0.000000
0.000000
0.000000
0.000000
0.000000
0.000000
0.000000
0.000000
0.000000
0.000000
0.000000
0.000000
0.000000
0.000000
0.000000
0.000000
0.000000
0.000000
0.000000
0.000000
0.000000
0.000000
0.000000
0.000000
0.000000
0.000000
0.000000
0.000000
0.000000
0.000000
0.000000
0.000000
0.000000
0.000000
0.000000
0.000000
0.000000
0.000000
0.000000
0.000000
0.000000
0.000000
0.000000
0.000000
0.000000
0.000000
0.000000
0.000000
0.000000
0.000000
0.000000
0.000000
0.000000
0.000000
0.000000
0.000000
0.000000
0.000000
0.000000
0.000000
0.000000
0.000000
0.000000
0.000000
0.000000
0.000000
0.000000
0.000000
0.000000
0.000000
0.000000
0.000000
0.000000
0.000000
0.000000
0.000000
0.000000
0.000000
0.000000
0.000000
0.000000
0.000000
0.000000
0.000000
0.000000
0.000000
0.000000
0.000000
0.000000
0.000000
0.000000
0.000000
0.000000
0.000000
0.000000
0.000000
0.000000
0.000000
0.000000
0.000000
0.000000
0.000000
0.000000
0.000000
0.000000
0.000000
0.000000
0.000000
0.000000
0.000000
0.000000
0.000000
0.000000
0.000000
0.000000
0.000000
0.000000
0.000000
0.000000
0.000000
0.000000
0.000000
0.000000
0.000000
0.000000
0.000000
0.000000
0.000000
0.000000
0.000000
0.000000
0.000000
0.000000
0.000000
0.000000
0.000000
0.000000
0.000000
0.000000
0.000000
0.000000
0.000000
0.000000
0.000000
0.000000
0.000000
0.000000
0.000000
0.000000
0.000000
0.000000
0.000000
0.000000
0.000000
0.000000
0.000000
0.000000
0.000000
0.000000
0.000000
0.000000
0.000000
0.000000
0.000000
0.000000
0.000000
0.000000
0.000000
0.000000
0.000000
0.000000
0.000000
0.000000
0.000000
0.000000
0.000000
0.000000
0.000000
0.000000
0.000000
0.000000
0.000000
0.000000
0.000000
0.000000
0.000000
0.000000
0.000000
0.000000
0.000000
0.000000
0.000000
0.000000
0.000000
0.000000
0.000000
0.000000
0.000000
0.000000
0.000000
0.000000
0.000000
0.000000
0.000000
0.000000
0.000000
0.000000
0.000000
0.000000
0.000000
0.000000
0.000000
0.000000
0.000000
0.000000
0.000000
0.000000
0.000000
0.000000
0.000000
0.000000
0.000000
0.000000
0.000000
0.000000
0.000000
0.000000
0.000000
0.000000
0.000000
0.000000
0.000000
0.000000
0.000000
0.000000
0.000000
0.000000
0.000000
0.000000
0.000000
0.000000
0.000000
0.000000
0.000000
0.000000
0.000000
0.000000
0.000000
0.000000
0.000000
0.000000
0.000000
0.000000
0.000000
0.000000
0.000000
0.000000
0.000000
0.000000
0.000000
0.000000
0.000000
0.000000
0.000000
0.000000
0.000000
0.000000
0.000000
0.000000
0.000000
0.000000
0.000000
0.000000
0.000000
0.000000
0.000000
0.000000
0.000000
0.000000
0.000000
0.000000
0.000000
0.000000
0.000000
0.000000
0.000000
0.000000
0.000000
0.000000
0.000000
0.000000
0.000000
0.000000
0.000000
0.000000
0.000000
0.000000
0.000000
0.000000
0.000000
0.000000
0.000000
0.000000
0.000000
0.000000
0.000000
0.000000
0.000000
0.000000
0.000000
0.000000
0.000000
0.000000
0.000000
0.000000
0.000000
0.000000
0.000000
0.000000
0.000000
0.000000
0.000000
0.000000
0.000000
0.000000
0.000000
0.000000
0.000000
0.000000
0.000000
0.000000
0.000000
0.000000
0.000000
0.000000
0.000000
0.000000
0.000000
0.000000
0.000000
0.000000
0.000000
0.000000
0.000000
0.000000
0.000000
0.000000
0.000000
0.000000
0.000000
0.000000
0.000000
0.000000
0.000000
0.000000
0.000000
0.000000
0.000000
0.000000
0.000000
0.000000
0.000000
0.000000
0.000000
0.000000
0.000000
0.000000
0.000000
0.000000
0.000000
0.000000
0.000000
0.000000
0.000000
0.000000
0.000000
0.000000
0.000000
0.000000
0.000000
0.000000
0.000000
0.000000
0.000000
0.000000
0.000000
0.000000
0.000000
0.000000
0.000000
0.000000
0.000000
0.000000
0.000000
0.000000
0.000000
0.000000
0.000000
0.000000
0.000000
0.000000
0.000000
0.000000
0.000000
0.000000
0.000000
0.000000
0.000000
0.000000
0.000000
0.000000
0.000000
0.000000
0.000000
0.000000
0.000000
0.000000
0.000000
0.000000
0.000000
0.000000
0.000000
0.000000
0.000000
0.000000
0.000000
0.000000
0.000000
0.000000
0.000000
0.000000
0.000000
0.000000
0.000000
0.000000
0.000000
0.000000
0.000000
0.000000
0.000000
0.000000
0.000000
0.000000
0.000000
0.000000
0.000000
0.000000
0.000000
0.000000
0.000000
0.000000
0.000000
0.000000
0.000000
0.000000
0.000000
0.000000
0.000000
0.000000
0.000000
0.000000
0.000000
0.000000
0.000000
0.000000
0.000000
0.000000
0.000000
0.000000
0.000000
0.000000
0.000000
0.000000
0.000000
0.000000
0.000000
0.000000
0.000000
0.000000
0.000000
0.000000
0.000000
0.000000
0.000000
0.000000
0.000000
0.000000
0.000000
0.000000
0.000000
0.000000
0.000000
0.000000
0.000000
0.000000
0.000000
0.000000
0.000000
0.000000
0.000000
0.000000
0.000000
0.000000
0.000000
0.000000
0.000000
0.000000
0.000000
0.000000
0.000000
0.000000
0.000000
0.000000
0.000000
0.000000
0.000000
0.000000
0.000000
0.000000
0.000000
0.000000
0.000000
0.000000
0.000000
0.000000
0.000000
0.000000
0.000000
0.000000
0.000000
0.000000
0.000000
0.000000
0.000000
0.000000
0.000000
0.000000
0.000000
0.000000
0.000000
0.000000
0.000000
0.000000
0.000000
0.000000
0.000000
0.000000
0.000000
0.000000
0.000000
0.000000
0.000000
0.000000
0.000000
0.000000
0.000000
0.000000
0.000000
0.000000
0.000000
0.000000
0.000000
0.000000
0.000000
0.000000
0.000000
0.000000
0.000000
0.000000
0.000000
0.000000
0.000000
0.000000
0.000000
0.000000
0.000000
0.000000
0.000000
0.000000
0.000000
0.000000
0.000000
0.000000
0.000000
0.000000
0.000000
0.000000
0.000000
0.000000
0.000000
0.000000
0.000000
0.000000
0.000000
0.000000
0.000000
0.000000
0.000000
0.000000
0.000000
0.000000
0.000000
0.000000
0.000000
0.000000
0.000000
0.000000
0.000000
0.000000
0.000000
0.000000
0.000000
0.000000
0.000000
0.000000
0.000000
0.000000
0.000000
0.000000
0.000000
0.000000
0.000000
0.000000
0.000000
0.000000
0.000000
0.000000
0.000000
0.000000
0.000000
0.000000
0.000000
0.000000
0.000000
0.000000
0.000000
0.000000
0.000000
0.000000
0.000000
0.000000
0.000000
0.000000
0.000000
0.000000
0.000000
0.000000
0.000000
0.000000
0.000000
0.000000
0.000000
0.000000
0.000000
0.000000
0.000000
0.000000
0.000000
0.000000
0.000000
0.000000
0.000000
0.000000
0.000000
0.000000
0.000000
0.000000
0.000000
0.000000
0.000000
0.000000
0.000000
0.000000
0.000000
0.000000
0.000000
0.000000
0.000000
0.000000
0.000000
0.000000
0.000000
0.000000
0.000000
0.000000
0.000000
0.000000
0.000000
0.000000
0.000000
0.000000
0.000000
0.000000
0.000000
0.000000
0.000000
0.000000
0.000000
0.000000
0.000000
0.000000
0.000000
0.000000
0.000000
0.000000
0.000000
0.000000
0.000000
0.000000
0.000000
0.000000
0.000000
0.000000
0.000000
0.000000
0.000000
0.000000
0.000000
0.000000
0.000000
0.000000
0.000000
0.000000
0.000000
0.000000
0.000000
0.000000
0.000000
0.000000
0.000000
0.000000
0.000000
0.000000
0.000000
0.000000
0.000000
0.000000
0.000000
0.000000
0.000000
0.000000
0.000000
0.000000
0.000000
0.000000
0.000000
0.000000
0.000000
0.000000
0.000000
0.000000
0.000000
0.000000
0.000000
0.000000
0.000000
0.000000
0.000000
0.000000
0.000000
0.000000
0.000000
0.000000
0.000000
0.000000
0.000000
0.000000
0.000000
0.000000
0.000000
0.000000
0.000000
0.000000
0.000000
0.000000
0.000000
0.000000
0.000000
0.000000
0.000000
0.000000
0.000000
0.000000
0.000000
0.000000
0.000000
0.000000
0.000000
0.000000
0.000000
0.000000
0.000000
0.000000
0.000000
0.000000
0.000000
0.000000
0.000000
0.000000
0.000000
0.000000
0.000000
0.000000
0.000000
0.000000
0.000000
0.000000
0.000000
0.000000
0.000000
0.000000
0.000000
0.000000
0.000000
0.000000
0.000000
0.000000
0.000000
0.000000
0.000000
0.000000
0.000000
0.000000
0.000000
0.000000
0.000000
0.000000
0.000000
0.000000
0.000000
0.000000
0.000000
0.000000
0.000000
0.000000
0.000000
0.000000
0.000000
0.000000
0.000000
0.000000
0.000000
0.000000
0.000000
0.000000
0.000000
0.000000
0.000000
0.000000
0.000000
0.000000
0.000000
0.000000
0.000000
0.000000
0.000000
0.000000
0.000000
0.000000
0.000000
0.000000
0.000000
0.000000
0.000000
0.000000
0.000000
0.000000
0.000000
0.000000
0.000000
0.000000
0.000000
0.000000
0.000000
0.000000
0.000000
0.000000
0.000000
0.000000
0.000000
0.000000
0.000000
0.000000
0.000000
0.000000
0.000000
0.000000
0.000000
0.000000
0.000000
0.000000
0.000000
0.000000
0.000000
0.000000
0.000000
0.000000
0.000000
0.000000
0.000000
0.000000
0.000000
0.000000
0.000000
0.000000
0.000000
0.000000
0.000000
0.000000
0.000000
0.000000
0.000000
0.000000
0.000000
0.000000
0.000000
0.000000
0.000000
0.000000
0.000000
0.000000
0.000000
0.000000
0.000000
0.000000
0.000000
0.000000
0.000000
0.000000
0.000000
0.000000
0.000000
0.000000
0.000000
0.000000
0.000000
0.000000
0.000000
0.000000
0.000000
0.000000
0.000000
0.000000
0.000000
0.000000
0.000000
0.000000
0.000000
0.000000
0.000000
0.000000
0.000000
0.000000
0.000000
0.000000
0.000000
0.000000
0.000000
0.000000
0.000000
0.000000
0.000000
0.000000
0.000000
0.000000
0.000000
0.000000
0.000000
0.000000
0.000000
0.000000
0.000000
0.000000
0.000000
0.000000
0.000000
0.000000
0.000000
0.000000
0.000000
0.000000
0.000000
0.000000
0.000000
0.000000
0.000000
0.000000
0.000000
0.000000
0.000000
0.000000
0.000000
0.000000
0.000000
0.000000
0.000000
0.000000
0.000000
0.000000
0.000000
0.000000
0.000000
0.000000
0.000000
0.000000
0.000000
0.000000
0.000000
0.000000
0.000000
0.000000
0.000000
0.000000
0.000000
0.000000
0.000000
0.000000
0.000000
0.000000
0.000000
0.000000
0.000000
0.000000
0.000000
0.000000
0.000000
0.000000
0.000000
0.000000
0.000000
0.000000
0.000000
0.000000
0.000000
0.000000
0.000000
0.000000
0.000000
0.000000
0.000000
0.000000
0.000000
0.000000
0.000000
0.000000
0.000000
0.000000
0.000000
0.000000
0.000000
0.000000
0.000000
0.000000
0.000000
0.000000
0.000000
0.000000
0.000000
0.000000
0.000000
0.000000
0.000000
0.000000
0.000000
0.000000
0.000000
0.000000
0.000000
0.000000
0.000000
0.000000
0.000000
0.000000
0.000000
0.000000
0.000000
0.000000
0.000000
0.000000
0.000000
0.000000
0.000000
0.000000
0.000000
0.000000
0.000000
0.000000
0.000000
0.000000
0.000000
0.000000
0.000000
0.000000
0.000000
0.000000
0.000000
0.000000
0.000000
0.000000
0.000000
0.000000
0.000000
0.000000
0.000000
0.000000
0.000000
0.000000
0.000000
0.000000
0.000000
0.000000
0.000000
0.000000
0.000000
0.000000
0.000000
0.000000
0.000000
0.000000
0.000000
0.000000
0.000000
0.000000
0.000000
0.000000
0.000000
0.000000
0.000000
0.000000
0.000000
0.000000
0.000000
0.000000
0.000000
0.000000
0.000000
0.000000
0.000000
0.000000
0.000000
0.000000
0.000000
0.000000
0.000000
0.000000
0.000000
0.000000
0.000000
0.000000
0.000000
0.000000
0.000000
0.000000
0.000000
0.000000
0.000000
0.000000
0.000000
0.000000
0.000000
0.000000
0.000000
0.000000
0.000000
0.000000
0.000000
0.000000
0.000000
0.000000
0.000000
0.000000
0.000000
0.000000
0.000000
0.000000
0.000000
0.000000
0.000000
0.000000
0.000000
0.000000
0.000000
0.000000
0.000000
0.000000
0.000000
0.000000
0.000000
0.000000
0.000000
0.000000
0.000000
0.000000
0.000000
0.000000
0.000000
0.000000
0.000000
0.000000
0.000000
0.000000
0.000000
0.000000
0.000000
0.000000
0.000000
0.000000
0.000000
0.000000
0.000000
0.000000
0.000000
0.000000
0.000000
0.000000
0.000000
0.000000
0.000000
0.000000
0.000000
0.000000
0.000000
0.000000
0.000000
0.000000
0.000000
0.000000
0.000000
0.000000
0.000000
0.000000
0.000000
0.000000
0.000000
0.000000
0.000000
0.000000
0.000000
0.000000
0.000000
0.000000
0.000000
0.000000
0.000000
0.000000
0.000000
0.000000
0.000000
0.000000
0.000000
0.000000
0.000000
0.000000
0.000000
0.000000
0.000000
0.000000
0.000000
0.000000
0.000000
0.000000
0.000000
0.000000
0.000000
0.000000
0.000000
0.000000
0.000000
0.000000
0.000000
0.000000
0.000000
0.000000
0.000000
0.000000
0.000000
0.000000
0.000000
0.000000
0.000000
0.000000
0.000000
0.000000
0.000000
0.000000
0.000000
0.000000
0.000000
0.000000
0.000000
0.000000
0.000000
0.000000
0.000000
0.000000
0.000000
0.000000
0.000000
0.000000
0.000000
0.000000
0.000000
0.000000
0.000000
0.000000
0.000000
0.000000
0.000000
0.000000
0.000000
0.000000
0.000000
0.000000
0.000000
0.000000
0.000000
0.000000
0.000000
0.000000
0.000000
0.000000
0.000000
0.000000
0.000000
0.000000
0.000000
0.000000
0.000000
0.000000
0.000000
0.000000
0.000000
0.000000
0.000000
0.000000
0.000000
0.000000
0.000000
0.000000
0.000000
0.000000
0.000000
0.000000
0.000000
0.000000
0.000000
0.000000
0.000000
0.000000
0.000000
0.000000
0.000000
0.000000
0.000000
0.000000
0.000000
0.000000
0.000000
0.000000
0.000000
0.000000
0.000000
0.000000
0.000000
0.000000
0.000000
0.000000
0.000000
0.000000
0.000000
0.000000
0.000000
0.000000
0.000000
0.000000
0.000000
0.000000
0.000000
0.000000
0.000000
0.000000
0.000000
0.000000
0.000000
0.000000
0.000000
0.000000
0.000000
0.000000
0.000000
0.000000
0.000000
0.000000
0.000000
0.000000
0.000000
0.000000
0.000000
0.000000
0.000000
0.000000
0.000000
0.000000
0.000000
0.000000
0.000000
0.000000
0.000000
0.000000
0.000000
0.000000
0.000000
0.000000
0.000000
0.000000
0.000000
0.000000
0.000000
0.000000
0.000000
0.000000
0.000000
0.000000
0.000000
0.000000
0.000000
0.000000
0.000000
0.000000
0.000000
0.000000
0.000000
0.000000
0.000000
0.000000
0.000000
0.000000
0.000000
0.000000
0.000000
0.000000
0.000000
0.000000
0.000000
0.000000
0.000000
0.000000
0.000000
0.000000
0.000000
0.000000
0.000000
0.000000
0.000000
0.000000
0.000000
0.000000
0.000000
0.000000
0.000000
0.000000
0.000000
0.000000
0.000000
0.000000
0.000000
0.000000
0.000000
0.000000
0.000000
0.000000
0.000000
0.000000
0.000000
0.000000
0.000000
0.000000
0.000000
0.000000
0.000000
0.000000
0.000000
0.000000
0.000000
0.000000
0.000000
0.000000
0.000000
0.000000
0.000000
0.000000
0.000000
0.000000
0.000000
0.000000
0.000000
0.000000
0.000000
0.000000
0.000000
0.000000
0.000000
0.000000
0.000000
0.000000
0.000000
0.000000
0.000000
0.000000
0.000000
0.000000
0.000000
0.000000
0.000000
0.000000
0.000000
0.000000
0.000000
0.000000
0.000000
0.000000
0.000000
0.000000
0.000000
0.000000
0.000000
0.000000
0.000000
0.000000
0.000000
0.000000
0.000000
0.000000
0.000000
0.000000
0.000000
0.000000
0.000000
0.000000
0.000000
0.000000
0.000000
0.000000
0.000000
0.000000
0.000000
0.000000
0.000000
0.000000
0.000000
0.000000
0.000000
0.000000
0.000000
0.000000
0.000000
0.000000
0.000000
0.000000
0.000000
0.000000
0.000000
0.000000
0.000000
0.000000
0.000000
0.000000
0.000000
0.000000
0.000000
0.000000
0.000000
0.000000
0.000000
0.000000
0.000000
0.000000
0.000000
0.000000
0.000000
0.000000
0.000000
0.000000
0.000000
0.000000
0.000000
0.000000
0.000000
0.000000
0.000000
0.000000
0.000000
0.000000
0.000000
0.000000
0.000000
0.000000
0.000000
0.000000
0.000000
0.000000
0.000000
0.000000
0.000000
0.000000
0.000000
0.000000
0.000000
0.000000
0.000000
0.000000
0.000000
0.000000
0.000000
0.000000
0.000000
0.000000
0.000000
0.000000
0.000000
0.000000
0.000000
0.000000
0.000000
0.000000
0.000000
0.000000
0.000000
0.000000
0.000000
0.000000
0.000000
0.000000
0.000000
0.000000
0.000000
0.000000
0.000000
0.000000
0.000000
0.000000
0.000000
0.000000
0.000000
0.000000
0.000000
0.000000
0.000000
0.000000
0.000000
0.000000
0.000000
0.000000
0.000000
0.000000
0.000000
0.000000
0.000000
0.000000
0.000000
0.000000
0.000000
0.000000
0.000000
0.000000
0.000000
0.000000
0.000000
0.000000
0.000000
0.000000
0.000000
0.000000
0.000000
0.000000
0.000000
0.000000
0.000000
0.000000
0.000000
0.000000
0.000000
0.000000
0.000000
0.000000
0.000000
0.000000
0.000000
0.000000
0.000000
0.000000
0.000000
0.000000
0.000000
0.000000
0.000000
0.000000
0.000000
0.000000
0.000000
0.000000
0.000000
0.000000
0.000000
0.000000
0.000000
0.000000
0.000000
0.000000
0.000000
0.000000
0.000000
0.000000
0.000000
0.000000
0.000000
0.000000
0.000000
0.000000
0.000000
0.000000
0.000000
0.000000
0.000000
0.000000
0.000000
0.000000
0.000000
0.000000
0.000000
0.000000
0.000000
0.000000
0.000000
0.000000
0.000000
0.000000
0.000000
0.000000
0.000000
0.000000
0.000000
0.000000
0.000000
0.000000
0.000000
0.000000
0.000000
0.000000
0.000000
0.000000
0.000000
0.000000
0.000000
0.000000
0.000000
0.000000
0.000000
0.000000
0.000000
0.000000
0.000000
0.000000
0.000000
0.000000
0.000000
0.000000
0.000000
0.000000
0.000000
0.000000
0.000000
0.000000
0.000000
0.000000
0.000000
0.000000
0.000000
0.000000
0.000000
0.000000
0.000000
0.000000
0.000000
0.000000
0.000000
0.000000
0.000000
0.000000
0.000000
0.000000
0.000000
0.000000
0.000000
0.000000
0.000000
0.000000
0.000000
0.000000
0.000000
0.000000
0.000000
0.000000
0.000000
0.000000
0.000000
0.000000
0.000000
0.000000
0.000000
0.000000
0.000000
0.000000
0.000000
0.000000
0.000000
0.000000
0.000000
0.000000
0.000000
0.000000
0.000000
0.000000
0.000000
0.000000
0.000000
0.000000
0.000000
0.000000
0.000000
0.000000
0.000000
0.000000
0.000000
0.000000
0.000000
0.000000
0.000000
0.000000
0.000000
0.000000
0.000000
0.000000
0.000000
0.000000
0.000000
0.000000
0.000000
0.000000
0.000000
0.000000
0.000000
0.000000
0.000000
0.000000
0.000000
0.000000
0.000000
0.000000
0.000000
0.000000
0.000000
0.000000
0.000000
0.000000
0.000000
0.000000
0.000000
0.000000
0.000000
0.000000
0.000000
0.000000
0.000000
0.000000
0.000000
0.000000
0.000000
0.000000
0.000000
0.000000
0.000000
0.000000
0.000000
0.000000
0.000000
0.000000
0.000000
0.000000
0.000000
0.000000
0.000000
0.000000
0.000000
0.000000
0.000000
0.000000
0.000000
0.000000
0.000000
0.000000
0.000000
0.000000
0.000000
0.000000
0.000000
0.000000
0.000000
0.000000
0.000000
0.000000
0.000000
0.000000
0.000000
0.000000
0.000000
0.000000
0.000000
0.000000
0.000000
0.000000
0.000000
0.000000
0.000000
0.000000
0.000000
0.000000
0.000000
0.000000
0.000000
0.000000
0.000000
0.000000
0.000000
0.000000
0.000000
0.000000
0.000000
0.000000
0.000000
0.000000
0.000000
0.000000
0.000000
0.000000
0.000000
0.000000
0.000000
0.000000
0.000000
0.000000
0.000000
0.000000
0.000000
0.000000
0.000000
0.000000
0.000000
0.000000
0.000000
0.000000
0.000000
0.000000
0.000000
0.000000
0.000000
0.000000
0.000000
0.000000
0.000000
0.000000
0.000000
0.000000
0.000000
0.000000
0.000000
0.000000
0.000000
0.000000
0.000000
0.000000
0.000000
0.000000
0.000000
0.000000
0.000000
0.000000
0.000000
0.000000
0.000000
0.000000
0.000000
0.000000
0.000000
0.000000
0.000000
0.000000
0.000000
0.000000
0.000000
0.000000
0.000000
0.000000
0.000000
0.000000
0.000000
0.000000
0.000000
0.000000
0.000000
0.000000
0.000000
0.000000
0.000000
0.000000
0.000000
0.000000
0.000000
0.000000
0.000000
0.000000
0.000000
0.000000
0.000000
0.000000
0.000000
0.000000
0.000000
0.000000
0.000000
0.000000
0.000000
0.000000
0.000000
0.000000
0.000000
0.000000
0.000000
0.000000
0.000000
0.000000
0.000000
0.000000
0.000000
0.000000
0.000000
0.000000
0.000000
0.000000
0.000000
0.000000
0.000000
0.000000
0.000000
0.000000
0.000000
0.000000
0.000000
0.000000
0.000000
0.000000
0.000000
0.000000
0.000000
0.000000
0.000000
0.000000
0.000000
0.000000
0.000000
0.000000
0.000000
0.000000
0.000000
0.000000
0.000000
0.000000
0.000000
0.000000
0.000000
0.000000
0.000000
0.000000
0.000000
0.000000
0.000000
0.000000
0.000000
0.000000
0.000000
0.000000
0.000000
0.000000
0.000000
0.000000
0.000000
0.000000
0.000000
0.000000
0.000000
0.000000
0.000000
0.000000
0.000000
0.000000
0.000000
0.000000
0.000000
0.000000
0.000000
0.000000
0.000000
0.000000
0.000000
0.000000
0.000000
0.000000
0.000000
0.000000
0.000000
0.000000
0.000000
0.000000
0.000000
0.000000
0.000000
0.000000
0.000000
0.000000
0.000000
0.000000
0.000000
0.000000
0.000000
0.000000
0.000000
0.000000
0.000000
0.000000
0.000000
0.000000
0.000000
0.000000
0.000000
0.000000
0.000000
0.000000
0.000000
0.000000
0.000000
0.000000
0.000000
0.000000
0.000000
0.000000
0.000000
0.000000
0.000000
0.000000
0.000000
0.000000
0.000000
0.000000
0.000000
0.000000
0.000000
0.000000
0.000000
0.000000
0.000000
0.000000
0.000000
0.000000
0.000000
0.000000
0.000000
0.000000
0.000000
0.000000
0.000000
0.000000
0.000000
0.000000
0.000000
0.000000
0.000000
0.000000
0.000000
0.000000
0.000000
0.000000
0.000000
0.000000
0.000000
0.000000
0.000000
0.000000
0.000000
0.000000
0.000000
0.000000
0.000000
0.000000
0.000000
0.000000
0.000000
0.000000
0.000000
0.000000
0.000000
0.000000
0.000000
0.000000
0.000000
0.000000
0.000000
0.000000
0.000000
0.000000
0.000000
0.000000
0.000000
0.000000
0.000000
0.000000
0.000000
0.000000
0.000000
0.000000
0.000000
0.000000
0.000000
0.000000
0.000000
0.000000
0.000000
0.000000
0.000000
0.000000
0.000000
0.000000
0.000000
0.000000
0.000000
0.000000
0.000000
0.000000
0.000000
0.000000
0.000000
0.000000
0.000000
0.000000
0.000000
0.000000
0.000000
0.000000
0.000000
0.000000
0.000000
0.000000
0.000000
0.000000
0.000000
0.000000
0.000000
0.000000
0.000000
0.000000
0.000000
0.000000
0.000000
0.000000
0.000000
0.000000
0.000000
0.000000
0.000000
0.000000
0.000000
0.000000
0.000000
0.000000
0.000000
0.000000
0.000000
0.000000
0.000000
0.000000
0.000000
0.000000
0.000000
0.000000
0.000000
0.000000
0.000000
0.000000
0.000000
0.000000
0.000000
0.000000
0.000000
0.000000
0.000000
0.000000
0.000000
0.000000
0.000000
0.000000
0.000000
0.000000
0.000000
0.000000
0.000000
0.000000
0.000000
0.000000
0.000000
0.000000
0.000000
0.000000
0.000000
0.000000
0.000000
0.000000
0.000000
0.000000
0.000000
0.000000
0.000000
0.000000
0.000000
0.000000
0.000000
0.000000
0.000000
0.000000
0.000000
0.000000
0.000000
0.000000
0.000000
0.000000
0.000000
0.000000
0.000000
0.000000
0.000000
0.000000
0.000000
0.000000
0.000000
0.000000
0.000000
0.000000
0.000000
0.000000
0.000000
0.000000
0.000000
0.000000
0.000000
0.000000
0.000000
0.000000
0.000000
0.000000
0.000000
0.000000
0.000000
0.000000
0.000000
0.000000
0.000000
0.000000
0.000000
0.000000
0.000000
0.000000
0.000000
0.000000
0.000000
0.000000
0.000000
0.000000
0.000000
0.000000
0.000000
0.000000
0.000000
0.000000
0.000000
0.000000
0.000000
0.000000
0.000000
0.000000
0.000000
0.000000
0.000000
0.000000
0.000000
0.000000
0.000000
0.000000
0.000000
0.000000
0.000000
0.000000
0.000000
0.000000
0.000000
0.000000
0.000000
0.000000
0.000000
0.000000
0.000000
0.000000
0.000000
0.000000
0.000000
0.000000
0.000000
0.000000
0.000000
0.000000
0.000000
0.000000
0.000000
0.000000
0.000000
0.000000
0.000000
0.000000
0.000000
0.000000
0.000000
0.000000
0.000000
0.000000
0.000000
0.000000
0.000000
0.000000
0.000000
0.000000
0.000000
0.000000
0.000000
0.000000
0.000000
0.000000
0.000000
0.000000
0.000000
0.000000
0.000000
0.000000
0.000000
0.000000
0.000000
0.000000
0.000000
0.000000
0.000000
0.000000
0.000000
0.000000
0.000000
0.000000
0.000000
0.000000
0.000000
0.000000
0.000000
0.000000
0.000000
0.000000
0.000000
0.000000
0.000000
0.000000
0.000000
0.000000
0.000000
0.000000
0.000000
0.000000
0.000000
0.000000
0.000000
0.000000
0.000000
0.000000
0.000000
0.000000
0.000000
0.000000
0.000000
0.000000
0.000000
0.000000
0.000000
0.000000
0.000000
0.000000
0.000000
0.000000
0.000000
0.000000
0.000000
0.000000
0.000000
0.000000
0.000000
0.000000
0.000000
0.000000
0.000000
0.000000
0.000000
0.000000
0.000000
0.000000
0.000000
0.000000
0.000000
0.000000
0.000000
0.000000
0.000000
0.000000
0.000000
0.000000
0.000000
0.000000
0.000000
0.000000
0.000000
0.000000
0.000000
0.000000
0.000000
0.000000
0.000000
0.000000
0.000000
0.000000
0.000000
0.000000
0.000000
0.000000
0.000000
0.000000
0.000000
0.000000
0.000000
0.000000
0.000000
0.000000
0.000000
0.000000
0.000000
0.000000
0.000000
0.000000
0.000000
0.000000
0.000000
0.000000
0.000000
0.000000
0.000000
0.000000
0.000000
0.000000
0.000000
0.000000
0.000000
0.000000
0.000000
0.000000
0.000000
0.000000
0.000000
0.000000
0.000000
0.000000
0.000000
0.000000
0.000000
0.000000
0.000000
0.000000
0.000000
0.000000
0.000000
0.000000
0.000000
0.000000
0.000000
0.000000
0.000000
0.000000
0.000000
0.000000
0.000000
0.000000
0.000000
0.000000
0.000000
0.000000
0.000000
0.000000
0.000000
0.000000
0.000000
0.000000
0.000000
0.000000
0.000000
0.000000
0.000000
0.000000
0.000000
0.000000
0.000000
0.000000
0.000000
0.000000
0.000000
0.000000
0.000000
0.000000
0.000000
0.000000
0.000000
0.000000
0.000000
0.000000
0.000000
0.000000
0.000000
0.000000
0.000000
0.000000
0.000000
0.000000
0.000000
0.000000
0.000000
0.000000
0.000000
0.000000
0.000000
0.000000
0.000000
0.000000
0.000000
0.000000
0.000000
0.000000
0.000000
0.000000
0.000000
0.000000
0.000000
0.000000
0.000000
0.000000
0.000000
0.000000
0.000000
0.000000
0.000000
0.000000
0.000000
0.000000
0.000000
0.000000
0.000000
0.000000
0.000000
0.000000
0.000000
0.000000
0.000000
0.000000
0.000000
0.000000
0.000000
0.000000
0.000000
0.000000
0.000000
0.000000
0.000000
0.000000
0.000000
0.000000
0.000000
0.000000
0.000000
0.000000
0.000000
0.000000
0.000000
0.000000
0.000000
0.000000
0.000000
0.000000
0.000000
0.000000
0.000000
0.000000
0.000000
0.000000
0.000000
0.000000
0.000000
0.000000
0.000000
0.000000
0.000000
0.000000
0.000000
0.000000
0.000000
0.000000
0.000000
0.000000
0.000000
0.000000
0.000000
0.000000
0.000000
0.000000
0.000000
0.000000
0.000000
0.000000
0.000000
0.000000
0.000000
0.000000
0.000000
0.000000
0.000000
0.000000
0.000000
0.000000
0.000000
0.000000
0.000000
0.000000
0.000000
0.000000
0.000000
0.000000
0.000000
0.000000
0.000000
0.000000
0.000000
0.000000
0.000000
0.000000
0.000000
0.000000
0.000000
0.000000
0.000000
0.000000
0.000000
0.000000
0.000000
0.000000
0.000000
0.000000
0.000000
0.000000
0.000000
0.000000
0.000000
0.000000
0.000000
0.000000
0.000000
0.000000
0.000000
0.000000
0.000000
0.000000
0.000000
0.000000
0.000000
0.000000
0.000000
0.000000
0.000000
0.000000
0.000000
0.000000
0.000000
0.000000
0.000000
0.000000
0.000000
0.000000
0.000000
0.000000
0.000000
0.000000
0.000000
0.000000
0.000000
0.000000
0.000000
0.000000
0.000000
0.000000
0.000000
0.000000
0.000000
0.000000
0.000000
0.000000
0.000000
0.000000
0.000000
0.000000
0.000000
0.000000
0.000000
0.000000
0.000000
0.000000
0.000000
0.000000
0.000000
0.000000
0.000000
0.000000
0.000000
0.000000
0.000000
0.000000
0.000000
0.000000
0.000000
0.000000
0.000000
0.000000
0.000000
0.000000
0.000000
0.000000
0.000000
0.000000
0.000000
0.000000
0.000000
0.000000
0.000000
0.000000
0.000000
0.000000
0.000000
0.000000
0.000000
0.000000
0.000000
0.000000
0.000000
0.000000
0.000000
0.000000
0.000000
0.000000
0.000000
0.000000
0.000000
0.000000
0.000000
0.000000
0.000000
0.000000
0.000000
0.000000
0.000000
0.000000
0.000000
0.000000
0.000000
0.000000
0.000000
0.000000
0.000000
0.000000
0.000000
0.000000
0.000000
0.000000
0.000000
0.000000
0.000000
0.000000
0.000000
0.000000
0.000000
0.000000
0.000000
0.000000
0.000000
0.000000
0.000000
0.000000
0.000000
0.000000
0.000000
0.000000
0.000000
0.000000
0.000000
0.000000
0.000000
0.000000
0.000000
0.000000
0.000000
0.000000
0.000000
0.000000
0.000000
0.000000
0.000000
0.000000
0.000000
0.000000
0.000000
0.000000
0.000000
0.000000
0.000000
0.000000
0.000000
0.000000
0.000000
0.000000
0.000000
0.000000
0.000000
0.000000
0.000000
0.000000
0.000000
0.000000
0.000000
0.000000
0.000000
0.000000
0.000000
0.000000
0.000000
0.000000
0.000000
0.000000
0.000000
0.000000
0.000000
0.000000
0.000000
0.000000
0.000000
0.000000
0.000000
0.000000
0.000000
0.000000
0.000000
0.000000
0.000000
0.000000
0.000000
0.000000
0.000000
0.000000
0.000000
0.000000
0.000000
0.000000
0.000000
0.000000
0.000000
0.000000
0.000000
0.000000
0.000000
0.000000
0.000000
0.000000
0.000000
0.000000
0.000000
0.000000
0.000000
0.000000
0.000000
0.000000
0.000000
0.000000
0.000000
0.000000
0.000000
0.000000
0.000000
0.000000
0.000000
0.000000
0.000000
0.000000
0.000000
0.000000
0.000000
0.000000
0.000000
0.000000
0.000000
0.000000
0.000000
0.000000
0.000000
0.000000
0.000000
0.000000
0.000000
0.000000
0.000000
0.000000
0.000000
0.000000
0.000000
0.000000
0.000000
0.000000
0.000000
0.000000
0.000000
0.000000
0.000000
0.000000
0.000000
0.000000
0.000000
0.000000
0.000000
0.000000
0.000000
0.000000
0.000000
0.000000
0.000000
0.000000
0.000000
0.000000
0.000000
0.000000
0.000000
0.000000
0.000000
0.000000
0.000000
0.000000
0.000000
0.000000
0.000000
0.000000
0.000000
0.000000
0.000000
0.000000
0.000000
0.000000
0.000000
0.000000
0.000000
0.000000
0.000000
0.000000
0.000000
0.000000
0.000000
0.000000
0.000000
0.000000
0.000000
0.000000
0.000000
0.000000
0.000000
0.000000
0.000000
0.000000
0.000000
0.000000
0.000000
0.000000
0.000000
0.000000
0.000000
0.000000
0.000000
0.000000
0.000000
0.000000
0.000000
0.000000
0.000000
0.000000
0.000000
0.000000
0.000000
0.000000
0.000000
0.000000
0.000000
0.000000
0.000000
0.000000
0.000000
0.000000
0.000000
0.000000
0.000000
0.000000
0.000000
0.000000
0.000000
0.000000
0.000000
0.000000
0.000000
0.000000
0.000000
0.000000
0.000000
0.000000
0.000000
0.000000
0.000000
0.000000
0.000000
0.000000
0.000000
0.000000
0.000000
0.000000
0.000000
0.000000
0.000000
0.000000
0.000000
0.000000
0.000000
0.000000
0.000000
0.000000
0.000000
0.000000
0.000000
0.000000
0.000000
0.000000
0.000000
0.000000
0.000000
0.000000
0.000000
0.000000
0.000000
0.000000
0.000000
0.000000
0.000000
0.000000
0.000000
0.000000
0.000000
0.000000
0.000000
0.000000
0.000000
0.000000
0.000000
0.000000
0.000000
0.000000
0.000000
0.000000
0.000000
0.000000
0.000000
0.000000
0.000000
0.000000
0.000000
0.000000
0.000000
0.000000
0.000000
0.000000
0.000000
0.000000
0.000000
0.000000
0.000000
0.000000
0.000000
0.000000
0.000000
0.000000
0.000000
0.000000
0.000000
0.000000
0.000000
0.000000
0.000000
0.000000
0.000000
0.000000
0.000000
0.000000
0.000000
0.000000
0.000000
0.000000
0.000000
0.000000
0.000000
0.000000
0.000000
0.000000
0.000000
0.000000
0.000000
0.000000
0.000000
0.000000
0.000000
0.000000
0.000000
0.000000
0.000000
0.000000
0.000000
0.000000
0.000000
0.000000
0.000000
0.000000
0.000000
0.000000
0.000000
0.000000
0.000000
0.000000
0.000000
0.000000
0.000000
0.000000
0.000000
0.000000
0.000000
0.000000
0.000000
0.000000
0.000000
0.000000
0.000000
0.000000
0.000000
0.000000
0.000000
0.000000
0.000000
0.000000
0.000000
0.000000
0.000000
0.000000
0.000000
0.000000
0.000000
0.000000
0.000000
0.000000
0.000000
0.000000
0.000000
0.000000
0.000000
0.000000
0.000000
0.000000
0.000000
0.000000
0.000000
0.000000
0.000000
0.000000
0.000000
0.000000
0.000000
0.000000
0.000000
0.000000
0.000000
0.000000
0.000000
0.000000
0.000000
0.000000
0.000000
0.000000
0.000000
0.000000
0.000000
0.000000
0.000000
0.000000
0.000000
0.000000
0.000000
0.000000
0.000000
0.000000
0.000000
0.000000
0.000000
0.000000
0.000000
0.000000
0.000000
0.000000
0.000000
0.000000
0.000000
0.000000
0.000000
0.000000
0.000000
0.000000
0.000000
0.000000
0.000000
0.000000
0.000000
0.000000
0.000000
0.000000
0.000000
0.000000
0.000000
0.000000
0.000000
0.000000
0.000000
0.000000
0.000000
0.000000
0.000000
0.000000
0.000000
0.000000
0.000000
0.000000
0.000000
0.000000
0.000000
0.000000
0.000000
0.000000
0.000000
0.000000
0.000000
0.000000
0.000000
0.000000
0.000000
0.000000
0.000000
0.000000
0.000000
0.000000
0.000000
0.000000
0.000000
0.000000
0.000000
0.000000
0.000000
0.000000
0.000000
0.000000
0.000000
0.000000
0.000000
0.000000
0.000000
0.000000
0.000000
0.000000
0.000000
0.000000
0.000000
0.000000
0.000000
0.000000
0.000000
0.000000
0.000000
0.000000
0.000000
0.000000
0.000000
0.000000
0.000000
0.000000
0.000000
0.000000
0.000000
0.000000
0.000000
0.000000
0.000000
0.000000
0.000000
0.000000
0.000000
0.000000
0.000000
0.000000
0.000000
0.000000
0.000000
0.000000
0.000000
0.000000
0.000000
0.000000
0.000000
0.000000
0.000000
0.000000
0.000000
0.000000
0.000000
0.000000
0.000000
0.000000
0.000000
0.000000
0.000000
0.000000
0.000000
0.000000
0.000000
0.000000
0.000000
0.000000
0.000000
0.000000
0.000000
0.000000
0.000000
0.000000
0.000000
0.000000
0.000000
0.000000
0.000000
0.000000
0.000000
0.000000
0.000000
0.000000
0.000000
0.000000
0.000000
0.000000
0.000000
0.000000
0.000000
0.000000
0.000000
0.000000
0.000000
0.000000
0.000000
0.000000
0.000000
0.000000
0.000000
0.000000
0.000000
0.000000
0.000000
0.000000
0.000000
0.000000
0.000000
0.000000
0.000000
0.000000
0.000000
0.000000
0.000000
0.000000
0.000000
0.000000
0.000000
0.000000
0.000000
0.000000
0.000000
0.000000
0.000000
0.000000
0.000000
0.000000
0.000000
0.000000
0.000000
0.000000
0.000000
0.000000
0.000000
0.000000
0.000000
0.000000
0.000000
0.000000
0.000000
0.000000
0.000000
0.000000
0.000000
0.000000
0.000000
0.000000
0.000000
0.000000
0.000000
0.000000
0.000000
0.000000
0.000000
0.000000
0.000000
0.000000
0.000000
0.000000
0.000000
0.000000
0.000000
0.000000
0.000000
0.000000
0.000000
0.000000
0.000000
0.000000
0.000000
0.000000
0.000000
0.000000
0.000000
0.000000
0.000000
0.000000
0.000000
0.000000
0.000000
0.000000
0.000000
0.000000
0.000000
0.000000
0.000000
0.000000
0.000000
0.000000
0.000000
0.000000
0.000000
0.000000
0.000000
0.000000
0.000000
0.000000
0.000000
0.000000
0.000000
0.000000
0.000000
0.000000
0.000000
0.000000
0.000000
0.000000
0.000000
0.000000
0.000000
0.000000
0.000000
0.000000
0.000000
0.000000
0.000000
0.000000
0.000000
0.000000
0.000000
0.000000
0.000000
0.000000
0.000000
0.000000
0.000000
0.000000
0.000000
0.000000
0.000000
0.000000
0.000000
0.000000
0.000000
0.000000
0.000000
0.000000
0.000000
0.000000
0.000000
0.000000
0.000000
0.000000
0.000000
0.000000
0.000000
0.000000
0.000000
0.000000
0.000000
0.000000
0.000000
0.000000
0.000000
0.000000
0.000000
0.000000
0.000000
0.000000
0.000000
0.000000
0.000000
0.000000
0.000000
0.000000
0.000000
0.000000
0.000000
0.000000
0.000000
0.000000
0.000000
0.000000
0.000000
0.000000
0.000000
0.000000
0.000000
0.000000
0.000000
0.000000
0.000000
0.000000
0.000000
0.000000
0.000000
0.000000
0.000000
0.000000
0.000000
0.000000
0.000000
0.000000
0.000000
0.000000
0.000000
0.000000
0.000000
0.000000
0.000000
0.000000
0.000000
0.000000
0.000000
0.000000
0.000000
0.000000
0.000000
0.000000
0.000000
0.000000
0.000000
0.000000
0.000000
0.000000
0.000000
0.000000
0.000000
0.000000
0.000000
0.000000
0.000000
0.000000
0.000000
0.000000
0.000000
0.000000
0.000000
0.000000
0.000000
0.000000
0.000000
0.000000
0.000000
0.000000
0.000000
0.000000
0.000000
0.000000
0.000000
0.000000
0.000000
0.000000
0.000000
0.000000
0.000000
0.000000
0.000000
0.000000
0.000000
0.000000
0.000000
0.000000
0.000000
0.000000
0.000000
0.000000
0.000000
0.000000
0.000000
0.000000
0.000000
0.000000
0.000000
0.000000
0.000000
0.000000
0.000000
0.000000
0.000000
0.000000
0.000000
0.000000
0.000000
0.000000
0.000000
0.000000
0.000000
0.000000
0.000000
0.000000
0.000000
0.000000
0.000000
0.000000
0.000000
0.000000
0.000000
0.000000
0.000000
0.000000
0.000000
0.000000
0.000000
0.000000
0.000000
0.000000
0.000000
0.000000
0.000000
0.000000
0.000000
0.000000
0.000000
0.000000
0.000000
0.000000
0.000000
0.000000
0.000000
0.000000
0.000000
0.000000
0.000000
0.000000
0.000000
0.000000
0.000000
0.000000
0.000000
0.000000
0.000000
0.000000
0.000000
0.000000
0.000000
0.000000
0.000000
0.000000
0.000000
0.000000
0.000000
0.000000
0.000000
0.000000
0.000000
0.000000
0.000000
0.000000
0.000000
0.000000
0.000000
0.000000
0.000000
0.000000
0.000000
0.000000
0.000000
0.000000
0.000000
0.000000
0.000000
0.000000
0.000000
0.000000
0.000000
0.000000
0.000000
0.000000
0.000000
0.000000
0.000000
0.000000
0.000000
0.000000
0.000000
0.000000
0.000000
0.000000
0.000000
0.000000
0.000000
0.000000
0.000000
0.000000
0.000000
0.000000
0.000000
0.000000
0.000000
0.000000
0.000000
0.000000
0.000000
0.000000
0.000000
0.000000
0.000000
0.000000
0.000000
0.000000
0.000000
0.000000
0.000000
0.000000
0.000000
0.000000
0.000000
0.000000
0.000000
0.000000
0.000000
0.000000
0.000000
0.000000
0.000000
0.000000
0.000000
0.000000
0.000000
0.000000
0.000000
0.000000
0.000000
0.000000
0.000000
0.000000
0.000000
0.000000
0.000000
0.000000
0.000000
0.000000
0.000000
0.000000
0.000000
0.000000
0.000000
0.000000
0.000000
0.000000
0.000000
0.000000
0.000000
0.000000
0.000000
0.000000
0.000000
0.000000
0.000000
0.000000
0.000000
0.000000
0.000000
0.000000
0.000000
0.000000
0.000000
0.000000
0.000000
0.000000
0.000000
0.000000
0.000000
0.000000
0.000000
0.000000
0.000000
0.000000
0.000000
0.000000
0.000000
0.000000
0.000000
0.000000
0.000000
0.000000
0.000000
0.000000
0.000000
0.000000
0.000000
0.000000
0.000000
0.000000
0.000000
0.000000
0.000000
0.000000
0.000000
0.000000
0.000000
0.000000
0.000000
0.000000
0.000000
0.000000
0.000000
0.000000
0.000000
0.000000
0.000000
0.000000
0.000000
0.000000
0.000000
0.000000
0.000000
0.000000
0.000000
0.000000
0.000000
0.000000
0.000000
0.000000
0.000000
0.000000
0.000000
0.000000
0.000000
0.000000
0.000000
0.000000
0.000000
0.000000
0.000000
0.000000
0.000000
0.000000
0.000000
0.000000
0.000000
0.000000
0.000000
0.000000
0.000000
0.000000
0.000000
0.000000
0.000000
0.000000
0.000000
0.000000
0.000000
0.000000
0.000000
0.000000
0.000000
0.000000
0.000000
0.000000
0.000000
0.000000
0.000000
0.000000
0.000000
0.000000
0.000000
0.000000
0.000000
0.000000
0.000000
0.000000
0.000000
0.000000
0.000000
0.000000
0.000000
0.000000
0.000000
0.000000
0.000000
0.000000
0.000000
0.000000
0.000000
0.000000
0.000000
0.000000
0.000000
0.000000
0.000000
0.000000
0.000000
0.000000
0.000000
0.000000
0.000000
0.000000
0.000000
0.000000
0.000000
0.000000
0.000000
0.000000
0.000000
0.000000
0.000000
0.000000
0.000000
0.000000
0.000000
0.000000
0.000000
0.000000
0.000000
0.000000
0.000000
0.000000
0.000000
0.000000
0.000000
0.000000
0.000000
0.000000
0.000000
0.000000
0.000000
0.000000
0.000000
0.000000
0.000000
0.000000
0.000000
0.000000
0.000000
0.000000
0.000000
0.000000
0.000000
0.000000
0.000000
0.000000
0.000000
0.000000
0.000000
0.000000
0.000000
0.000000
0.000000
0.000000
0.000000
0.000000
0.000000
0.000000
0.000000
0.000000
0.000000
0.000000
0.000000
0.000000
0.000000
0.000000
0.000000
0.000000
0.000000
0.000000
0.000000
0.000000
0.000000
0.000000
0.000000
0.000000
0.000000
0.000000
0.000000
0.000000
0.000000
0.000000
0.000000
0.000000
0.000000
0.000000
0.000000
0.000000
0.000000
0.000000
0.000000
0.000000
0.000000
0.000000
0.000000
0.000000
0.000000
0.000000
0.000000
0.000000
0.000000
0.000000
0.000000
0.000000
0.000000
0.000000
0.000000
0.000000
0.000000
0.000000
0.000000
0.000000
0.000000
0.000000
0.000000
0.000000
0.000000
0.000000
0.000000
0.000000
0.000000
0.000000
0.000000
0.000000
0.000000
0.000000
0.000000
0.000000
0.000000
0.000000
0.000000
0.000000
0.000000
0.000000
0.000000
0.000000
0.000000
0.000000
0.000000
0.000000
0.000000
0.000000
0.000000
0.000000
0.000000
0.000000
0.000000
0.000000
0.000000
0.000000
0.000000
0.000000
0.000000
0.000000
0.000000
0.000000
0.000000
0.000000
0.000000
0.000000
0.000000
0.000000
0.000000
0.000000
0.000000
0.000000
0.000000
0.000000
0.000000
0.000000
0.000000
0.000000
0.000000
0.000000
0.000000
0.000000
0.000000
0.000000
0.000000
SCALARS	1stPrincipleStress	float	1
LOOKUP_TABLE	default
0.000000
0.000000
0.000000
0.000000
0.000000
0.000000
0.000000
0.000000
0.000000
0.000000
0.000000
0.000000
0.000000
0.000000
0.000000
0.000000
0.000000
0.000000
0.000000
0.000000
0.000000
0.000000
0.000000
0.000000
0.000000
0.000000
0.000000
0.000000
0.000000
0.000000
0.000000
0.000000
0.000000
0.000000
0.000000
0.000000
0.000000
0.000000
0.000000
0.000000
0.000000
0.000000
0.000000
0.000000
0.000000
0.000000
0.000000
0.000000
0.000000
0.000000
0.000000
0.000000
0.000000
0.000000
0.000000
0.000000
0.000000
0.000000
0.000000
0.000000
0.000000
0.000000
0.000000
0.000000
0.000000
0.000000
0.000000
0.000000
0.000000
0.000000
0.000000
0.000000
0.000000
0.000000
0.000000
0.000000
0.000000
0.000000
0.000000
0.000000
0.000000
0.000000
0.000000
0.000000
0.000000
0.000000
0.000000
0.000000
0.000000
0.000000
0.000000
0.000000
0.000000
0.000000
0.000000
0.000000
0.000000
0.000000
0.000000
0.000000
0.000000
0.000000
0.000000
0.000000
0.000000
0.000000
0.000000
0.000000
0.000000
0.000000
0.000000
0.000000
0.000000
0.000000
0.000000
0.000000
0.000000
0.000000
0.000000
0.000000
0.000000
0.000000
0.000000
0.000000
0.000000
0.000000
0.000000
0.000000
0.000000
0.000000
0.000000
0.000000
0.000000
0.000000
0.000000
0.000000
0.000000
0.000000
0.000000
0.000000
0.000000
0.000000
0.000000
0.000000
0.000000
0.000000
0.000000
0.000000
0.000000
0.000000
0.000000
0.000000
0.000000
0.000000
0.000000
0.000000
0.000000
0.000000
0.000000
0.000000
0.000000
0.000000
0.000000
0.000000
0.000000
0.000000
0.000000
0.000000
0.000000
0.000000
0.000000
0.000000
0.000000
0.000000
0.000000
0.000000
0.000000
0.000000
0.000000
0.000000
0.000000
0.000000
0.000000
0.000000
0.000000
0.000000
0.000000
0.000000
0.000000
0.000000
0.000000
0.000000
0.000000
0.000000
0.000000
0.000000
0.000000
0.000000
0.000000
0.000000
0.000000
0.000000
0.000000
0.000000
0.000000
0.000000
0.000000
0.000000
0.000000
0.000000
0.000000
0.000000
0.000000
0.000000
0.000000
0.000000
0.000000
0.000000
0.000000
0.000000
0.000000
0.000000
0.000000
0.000000
0.000000
0.000000
0.000000
0.000000
0.000000
0.000000
0.000000
0.000000
0.000000
0.000000
0.000000
0.000000
0.000000
0.000000
0.000000
0.000000
0.000000
0.000000
0.000000
0.000000
0.000000
0.000000
0.000000
0.000000
0.000000
0.000000
0.000000
0.000000
0.000000
0.000000
0.000000
0.000000
0.000000
0.000000
0.000000
0.000000
0.000000
0.000000
0.000000
0.000000
0.000000
0.000000
0.000000
0.000000
0.000000
0.000000
0.000000
0.000000
0.000000
0.000000
0.000000
0.000000
0.000000
0.000000
0.000000
0.000000
0.000000
0.000000
0.000000
0.000000
0.000000
0.000000
0.000000
0.000000
0.000000
0.000000
0.000000
0.000000
0.000000
0.000000
0.000000
0.000000
0.000000
0.000000
0.000000
0.000000
0.000000
0.000000
0.000000
0.000000
0.000000
0.000000
0.000000
0.000000
0.000000
0.000000
0.000000
0.000000
0.000000
0.000000
0.000000
0.000000
0.000000
0.000000
0.000000
0.000000
0.000000
0.000000
0.000000
0.000000
0.000000
0.000000
0.000000
0.000000
0.000000
0.000000
0.000000
0.000000
0.000000
0.000000
0.000000
0.000000
0.000000
0.000000
0.000000
0.000000
0.000000
0.000000
0.000000
0.000000
0.000000
0.000000
0.000000
0.000000
0.000000
0.000000
0.000000
0.000000
0.000000
0.000000
0.000000
0.000000
0.000000
0.000000
0.000000
0.000000
0.000000
0.000000
0.000000
0.000000
0.000000
0.000000
0.000000
0.000000
0.000000
0.000000
0.000000
0.000000
0.000000
0.000000
0.000000
0.000000
0.000000
0.000000
0.000000
0.000000
0.000000
0.000000
0.000000
0.000000
0.000000
0.000000
0.000000
0.000000
0.000000
0.000000
0.000000
0.000000
0.000000
0.000000
0.000000
0.000000
0.000000
0.000000
0.000000
0.000000
0.000000
0.000000
0.000000
0.000000
0.000000
0.000000
0.000000
0.000000
0.000000
0.000000
0.000000
0.000000
0.000000
0.000000
0.000000
0.000000
0.000000
0.000000
0.000000
0.000000
0.000000
0.000000
0.000000
0.000000
0.000000
0.000000
0.000000
0.000000
0.000000
0.000000
0.000000
0.000000
0.000000
0.000000
0.000000
0.000000
0.000000
0.000000
0.000000
0.000000
0.000000
0.000000
0.000000
0.000000
0.000000
0.000000
0.000000
0.000000
0.000000
0.000000
0.000000
0.000000
0.000000
0.000000
0.000000
0.000000
0.000000
0.000000
0.000000
0.000000
0.000000
0.000000
0.000000
0.000000
0.000000
0.000000
0.000000
0.000000
0.000000
0.000000
0.000000
0.000000
0.000000
0.000000
0.000000
0.000000
0.000000
0.000000
0.000000
0.000000
0.000000
0.000000
0.000000
0.000000
0.000000
0.000000
0.000000
0.000000
0.000000
0.000000
0.000000
0.000000
0.000000
0.000000
0.000000
0.000000
0.000000
0.000000
0.000000
0.000000
0.000000
0.000000
0.000000
0.000000
0.000000
0.000000
0.000000
0.000000
0.000000
0.000000
0.000000
0.000000
0.000000
0.000000
0.000000
0.000000
0.000000
0.000000
0.000000
0.000000
0.000000
0.000000
0.000000
0.000000
0.000000
0.000000
0.000000
0.000000
0.000000
0.000000
0.000000
0.000000
0.000000
0.000000
0.000000
0.000000
0.000000
0.000000
0.000000
0.000000
0.000000
0.000000
0.000000
0.000000
0.000000
0.000000
0.000000
0.000000
0.000000
0.000000
0.000000
0.000000
0.000000
0.000000
0.000000
0.000000
0.000000
0.000000
0.000000
0.000000
0.000000
0.000000
0.000000
0.000000
0.000000
0.000000
0.000000
0.000000
0.000000
0.000000
0.000000
0.000000
0.000000
0.000000
0.000000
0.000000
0.000000
0.000000
0.000000
0.000000
0.000000
0.000000
0.000000
0.000000
0.000000
0.000000
0.000000
0.000000
0.000000
0.000000
0.000000
0.000000
0.000000
0.000000
0.000000
0.000000
0.000000
0.000000
0.000000
0.000000
0.000000
0.000000
0.000000
0.000000
0.000000
0.000000
0.000000
0.000000
0.000000
0.000000
0.000000
0.000000
0.000000
0.000000
0.000000
0.000000
0.000000
0.000000
0.000000
0.000000
0.000000
0.000000
0.000000
0.000000
0.000000
0.000000
0.000000
0.000000
0.000000
0.000000
0.000000
0.000000
0.000000
0.000000
0.000000
0.000000
0.000000
0.000000
0.000000
0.000000
0.000000
0.000000
0.000000
0.000000
0.000000
0.000000
0.000000
0.000000
0.000000
0.000000
0.000000
0.000000
0.000000
0.000000
0.000000
0.000000
0.000000
0.000000
0.000000
0.000000
0.000000
0.000000
0.000000
0.000000
0.000000
0.000000
0.000000
0.000000
0.000000
0.000000
0.000000
0.000000
0.000000
0.000000
0.000000
0.000000
0.000000
0.000000
0.000000
0.000000
0.000000
0.000000
0.000000
0.000000
0.000000
0.000000
0.000000
0.000000
0.000000
0.000000
0.000000
0.000000
0.000000
0.000000
0.000000
0.000000
0.000000
0.000000
0.000000
0.000000
0.000000
0.000000
0.000000
0.000000
0.000000
0.000000
0.000000
0.000000
0.000000
0.000000
0.000000
0.000000
0.000000
0.000000
0.000000
0.000000
0.000000
0.000000
0.000000
0.000000
0.000000
0.000000
0.000000
0.000000
0.000000
0.000000
0.000000
0.000000
0.000000
0.000000
0.000000
0.000000
0.000000
0.000000
0.000000
0.000000
0.000000
0.000000
0.000000
0.000000
0.000000
0.000000
0.000000
0.000000
0.000000
0.000000
0.000000
0.000000
0.000000
0.000000
0.000000
0.000000
0.000000
0.000000
0.000000
0.000000
0.000000
0.000000
0.000000
0.000000
0.000000
0.000000
0.000000
0.000000
0.000000
0.000000
0.000000
0.000000
0.000000
0.000000
0.000000
0.000000
0.000000
0.000000
0.000000
0.000000
0.000000
0.000000
0.000000
0.000000
0.000000
0.000000
0.000000
0.000000
0.000000
0.000000
0.000000
0.000000
0.000000
0.000000
0.000000
0.000000
0.000000
0.000000
0.000000
0.000000
0.000000
0.000000
0.000000
0.000000
0.000000
0.000000
0.000000
0.000000
0.000000
0.000000
0.000000
0.000000
0.000000
0.000000
0.000000
0.000000
0.000000
0.000000
0.000000
0.000000
0.000000
0.000000
0.000000
0.000000
0.000000
0.000000
0.000000
0.000000
0.000000
0.000000
0.000000
0.000000
0.000000
0.000000
0.000000
0.000000
0.000000
0.000000
0.000000
0.000000
0.000000
0.000000
0.000000
0.000000
0.000000
0.000000
0.000000
0.000000
0.000000
0.000000
0.000000
0.000000
0.000000
0.000000
0.000000
0.000000
0.000000
0.000000
0.000000
0.000000
0.000000
0.000000
0.000000
0.000000
0.000000
0.000000
0.000000
0.000000
0.000000
0.000000
0.000000
0.000000
0.000000
0.000000
0.000000
0.000000
0.000000
0.000000
0.000000
0.000000
0.000000
0.000000
0.000000
0.000000
0.000000
0.000000
0.000000
0.000000
0.000000
0.000000
0.000000
0.000000
0.000000
0.000000
0.000000
0.000000
0.000000
0.000000
0.000000
0.000000
0.000000
0.000000
0.000000
0.000000
0.000000
0.000000
0.000000
0.000000
0.000000
0.000000
0.000000
0.000000
0.000000
0.000000
0.000000
0.000000
0.000000
0.000000
0.000000
0.000000
0.000000
0.000000
0.000000
0.000000
0.000000
0.000000
0.000000
0.000000
0.000000
0.000000
0.000000
0.000000
0.000000
0.000000
0.000000
0.000000
0.000000
0.000000
0.000000
0.000000
0.000000
0.000000
0.000000
0.000000
0.000000
0.000000
0.000000
0.000000
0.000000
0.000000
0.000000
0.000000
0.000000
0.000000
0.000000
0.000000
0.000000
0.000000
0.000000
0.000000
0.000000
0.000000
0.000000
0.000000
0.000000
0.000000
0.000000
0.000000
0.000000
0.000000
0.000000
0.000000
0.000000
0.000000
0.000000
0.000000
0.000000
0.000000
0.000000
0.000000
0.000000
0.000000
0.000000
0.000000
0.000000
0.000000
0.000000
0.000000
0.000000
0.000000
0.000000
0.000000
0.000000
0.000000
0.000000
0.000000
0.000000
0.000000
0.000000
0.000000
0.000000
0.000000
0.000000
0.000000
0.000000
0.000000
0.000000
0.000000
0.000000
0.000000
0.000000
0.000000
0.000000
0.000000
0.000000
0.000000
0.000000
0.000000
0.000000
0.000000
0.000000
0.000000
0.000000
0.000000
0.000000
0.000000
0.000000
0.000000
0.000000
0.000000
0.000000
0.000000
0.000000
0.000000
0.000000
0.000000
0.000000
0.000000
0.000000
0.000000
0.000000
0.000000
0.000000
0.000000
0.000000
0.000000
0.000000
0.000000
0.000000
0.000000
0.000000
0.000000
0.000000
0.000000
0.000000
0.000000
0.000000
0.000000
0.000000
0.000000
0.000000
0.000000
0.000000
0.000000
0.000000
0.000000
0.000000
0.000000
0.000000
0.000000
0.000000
0.000000
0.000000
0.000000
0.000000
0.000000
0.000000
0.000000
0.000000
0.000000
0.000000
0.000000
0.000000
0.000000
0.000000
0.000000
0.000000
0.000000
0.000000
0.000000
0.000000
0.000000
0.000000
0.000000
0.000000
0.000000
0.000000
0.000000
0.000000
0.000000
0.000000
0.000000
0.000000
0.000000
0.000000
0.000000
0.000000
0.000000
0.000000
0.000000
0.000000
0.000000
0.000000
0.000000
0.000000
0.000000
0.000000
0.000000
0.000000
0.000000
0.000000
0.000000
0.000000
0.000000
0.000000
0.000000
0.000000
0.000000
0.000000
0.000000
0.000000
0.000000
0.000000
0.000000
0.000000
0.000000
0.000000
0.000000
0.000000
0.000000
0.000000
0.000000
0.000000
0.000000
0.000000
0.000000
0.000000
0.000000
0.000000
0.000000
0.000000
0.000000
0.000000
0.000000
0.000000
0.000000
0.000000
0.000000
0.000000
0.000000
0.000000
0.000000
0.000000
0.000000
0.000000
0.000000
0.000000
0.000000
0.000000
0.000000
0.000000
0.000000
0.000000
0.000000
0.000000
0.000000
0.000000
0.000000
0.000000
0.000000
0.000000
0.000000
0.000000
0.000000
0.000000
0.000000
0.000000
0.000000
0.000000
0.000000
0.000000
0.000000
0.000000
0.000000
0.000000
0.000000
0.000000
0.000000
0.000000
0.000000
0.000000
0.000000
0.000000
0.000000
0.000000
0.000000
0.000000
0.000000
0.000000
0.000000
0.000000
0.000000
0.000000
0.000000
0.000000
0.000000
0.000000
0.000000
0.000000
0.000000
0.000000
0.000000
0.000000
0.000000
0.000000
0.000000
0.000000
0.000000
0.000000
0.000000
0.000000
0.000000
0.000000
0.000000
0.000000
0.000000
0.000000
0.000000
0.000000
0.000000
0.000000
0.000000
0.000000
0.000000
0.000000
0.000000
0.000000
0.000000
0.000000
0.000000
0.000000
0.000000
0.000000
0.000000
0.000000
0.000000
0.000000
0.000000
0.000000
0.000000
0.000000
0.000000
0.000000
0.000000
0.000000
0.000000
0.000000
0.000000
0.000000
0.000000
0.000000
0.000000
0.000000
0.000000
0.000000
0.000000
0.000000
0.000000
0.000000
0.000000
0.000000
0.000000
0.000000
0.000000
0.000000
0.000000
0.000000
0.000000
0.000000
0.000000
0.000000
0.000000
0.000000
0.000000
0.000000
0.000000
0.000000
0.000000
0.000000
0.000000
0.000000
0.000000
0.000000
0.000000
0.000000
0.000000
0.000000
0.000000
0.000000
0.000000
0.000000
0.000000
0.000000
0.000000
0.000000
0.000000
0.000000
0.000000
0.000000
0.000000
0.000000
0.000000
0.000000
0.000000
0.000000
0.000000
0.000000
0.000000
0.000000
0.000000
0.000000
0.000000
0.000000
0.000000
0.000000
0.000000
0.000000
0.000000
0.000000
0.000000
0.000000
0.000000
0.000000
0.000000
0.000000
0.000000
0.000000
0.000000
0.000000
0.000000
0.000000
0.000000
0.000000
0.000000
0.000000
0.000000
0.000000
0.000000
0.000000
0.000000
0.000000
0.000000
0.000000
0.000000
0.000000
0.000000
0.000000
0.000000
0.000000
0.000000
0.000000
0.000000
0.000000
0.000000
0.000000
0.000000
0.000000
0.000000
0.000000
0.000000
0.000000
0.000000
0.000000
0.000000
0.000000
0.000000
0.000000
0.000000
0.000000
0.000000
0.000000
0.000000
0.000000
0.000000
0.000000
0.000000
0.000000
0.000000
0.000000
0.000000
0.000000
0.000000
0.000000
0.000000
0.000000
0.000000
0.000000
0.000000
0.000000
0.000000
0.000000
0.000000
0.000000
0.000000
0.000000
0.000000
0.000000
0.000000
0.000000
0.000000
0.000000
0.000000
0.000000
0.000000
0.000000
0.000000
0.000000
0.000000
0.000000
0.000000
0.000000
0.000000
0.000000
0.000000
0.000000
0.000000
0.000000
0.000000
0.000000
0.000000
0.000000
0.000000
0.000000
0.000000
0.000000
0.000000
0.000000
0.000000
0.000000
0.000000
0.000000
0.000000
0.000000
0.000000
0.000000
0.000000
0.000000
0.000000
0.000000
0.000000
0.000000
0.000000
0.000000
0.000000
0.000000
0.000000
0.000000
0.000000
0.000000
0.000000
0.000000
0.000000
0.000000
0.000000
0.000000
0.000000
0.000000
0.000000
0.000000
0.000000
0.000000
0.000000
0.000000
0.000000
0.000000
0.000000
0.000000
0.000000
0.000000
0.000000
0.000000
0.000000
0.000000
0.000000
0.000000
0.000000
0.000000
0.000000
0.000000
0.000000
0.000000
0.000000
0.000000
0.000000
0.000000
0.000000
0.000000
0.000000
0.000000
0.000000
0.000000
0.000000
0.000000
0.000000
0.000000
0.000000
0.000000
0.000000
0.000000
0.000000
0.000000
0.000000
0.000000
0.000000
0.000000
0.000000
0.000000
0.000000
0.000000
0.000000
0.000000
0.000000
0.000000
0.000000
0.000000
0.000000
0.000000
0.000000
0.000000
0.000000
0.000000
0.000000
0.000000
0.000000
0.000000
0.000000
0.000000
0.000000
0.000000
0.000000
0.000000
0.000000
0.000000
0.000000
0.000000
0.000000
0.000000
0.000000
0.000000
0.000000
0.000000
0.000000
0.000000
0.000000
0.000000
0.000000
0.000000
0.000000
0.000000
0.000000
0.000000
0.000000
0.000000
0.000000
0.000000
0.000000
0.000000
0.000000
0.000000
0.000000
0.000000
0.000000
0.000000
0.000000
0.000000
0.000000
0.000000
0.000000
0.000000
0.000000
0.000000
0.000000
0.000000
0.000000
0.000000
0.000000
0.000000
0.000000
0.000000
0.000000
0.000000
0.000000
0.000000
0.000000
0.000000
0.000000
0.000000
0.000000
0.000000
0.000000
0.000000
0.000000
0.000000
0.000000
0.000000
0.000000
0.000000
0.000000
0.000000
0.000000
0.000000
0.000000
0.000000
0.000000
0.000000
0.000000
0.000000
0.000000
0.000000
0.000000
0.000000
0.000000
0.000000
0.000000
0.000000
0.000000
0.000000
0.000000
0.000000
0.000000
0.000000
0.000000
0.000000
0.000000
0.000000
0.000000
0.000000
0.000000
0.000000
0.000000
0.000000
0.000000
0.000000
0.000000
0.000000
0.000000
0.000000
0.000000
0.000000
0.000000
0.000000
0.000000
0.000000
0.000000
0.000000
0.000000
0.000000
0.000000
0.000000
0.000000
0.000000
0.000000
0.000000
0.000000
0.000000
0.000000
0.000000
0.000000
0.000000
0.000000
0.000000
0.000000
0.000000
0.000000
0.000000
0.000000
0.000000
0.000000
0.000000
0.000000
0.000000
0.000000
0.000000
0.000000
0.000000
0.000000
0.000000
0.000000
0.000000
0.000000
0.000000
0.000000
0.000000
0.000000
0.000000
0.000000
0.000000
0.000000
0.000000
0.000000
0.000000
0.000000
0.000000
0.000000
0.000000
0.000000
0.000000
0.000000
0.000000
0.000000
0.000000
0.000000
0.000000
0.000000
0.000000
0.000000
0.000000
0.000000
0.000000
0.000000
0.000000
0.000000
0.000000
0.000000
0.000000
0.000000
0.000000
0.000000
0.000000
0.000000
0.000000
0.000000
0.000000
0.000000
0.000000
0.000000
0.000000
0.000000
0.000000
0.000000
0.000000
0.000000
0.000000
0.000000
0.000000
0.000000
0.000000
0.000000
0.000000
0.000000
0.000000
0.000000
0.000000
0.000000
0.000000
0.000000
0.000000
0.000000
0.000000
0.000000
0.000000
0.000000
0.000000
0.000000
0.000000
0.000000
0.000000
0.000000
0.000000
0.000000
0.000000
0.000000
0.000000
0.000000
0.000000
0.000000
0.000000
0.000000
0.000000
0.000000
0.000000
0.000000
0.000000
0.000000
0.000000
0.000000
0.000000
0.000000
0.000000
0.000000
0.000000
0.000000
0.000000
0.000000
0.000000
0.000000
0.000000
0.000000
0.000000
0.000000
0.000000
0.000000
0.000000
0.000000
0.000000
0.000000
0.000000
0.000000
0.000000
0.000000
0.000000
0.000000
0.000000
0.000000
0.000000
0.000000
0.000000
0.000000
0.000000
0.000000
0.000000
0.000000
0.000000
0.000000
0.000000
0.000000
0.000000
0.000000
0.000000
0.000000
0.000000
0.000000
0.000000
0.000000
0.000000
0.000000
0.000000
0.000000
0.000000
0.000000
0.000000
0.000000
0.000000
0.000000
0.000000
0.000000
0.000000
0.000000
0.000000
0.000000
0.000000
0.000000
0.000000
0.000000
0.000000
0.000000
0.000000
0.000000
0.000000
0.000000
0.000000
0.000000
0.000000
0.000000
0.000000
0.000000
0.000000
0.000000
0.000000
0.000000
0.000000
0.000000
0.000000
0.000000
0.000000
0.000000
0.000000
0.000000
0.000000
0.000000
0.000000
0.000000
0.000000
0.000000
0.000000
0.000000
0.000000
0.000000
0.000000
0.000000
0.000000
0.000000
0.000000
0.000000
0.000000
0.000000
0.000000
0.000000
0.000000
0.000000
0.000000
0.000000
0.000000
0.000000
0.000000
0.000000
0.000000
0.000000
0.000000
0.000000
0.000000
0.000000
0.000000
0.000000
0.000000
0.000000
0.000000
0.000000
0.000000
0.000000
0.000000
0.000000
0.000000
0.000000
0.000000
0.000000
0.000000
0.000000
0.000000
0.000000
0.000000
0.000000
0.000000
0.000000
0.000000
0.000000
0.000000
0.000000
0.000000
0.000000
0.000000
0.000000
0.000000
0.000000
0.000000
0.000000
0.000000
0.000000
0.000000
0.000000
0.000000
0.000000
0.000000
0.000000
0.000000
0.000000
0.000000
0.000000
0.000000
0.000000
0.000000
0.000000
0.000000
0.000000
0.000000
0.000000
0.000000
0.000000
0.000000
0.000000
0.000000
0.000000
0.000000
0.000000
0.000000
0.000000
0.000000
0.000000
0.000000
0.000000
0.000000
0.000000
0.000000
0.000000
0.000000
0.000000
0.000000
0.000000
0.000000
0.000000
0.000000
0.000000
0.000000
0.000000
0.000000
0.000000
0.000000
0.000000
0.000000
0.000000
0.000000
0.000000
0.000000
0.000000
0.000000
0.000000
0.000000
0.000000
0.000000
0.000000
0.000000
0.000000
0.000000
0.000000
0.000000
0.000000
0.000000
0.000000
0.000000
0.000000
0.000000
0.000000
0.000000
0.000000
0.000000
0.000000
0.000000
0.000000
0.000000
0.000000
0.000000
0.000000
0.000000
0.000000
0.000000
0.000000
0.000000
0.000000
0.000000
0.000000
0.000000
0.000000
0.000000
0.000000
0.000000
0.000000
0.000000
0.000000
0.000000
0.000000
0.000000
0.000000
0.000000
0.000000
0.000000
0.000000
0.000000
0.000000
0.000000
0.000000
0.000000
0.000000
0.000000
0.000000
0.000000
0.000000
0.000000
0.000000
0.000000
0.000000
0.000000
0.000000
0.000000
0.000000
0.000000
0.000000
0.000000
0.000000
0.000000
0.000000
0.000000
0.000000
0.000000
0.000000
0.000000
0.000000
0.000000
0.000000
0.000000
0.000000
0.000000
0.000000
0.000000
0.000000
0.000000
0.000000
0.000000
0.000000
0.000000
0.000000
0.000000
0.000000
0.000000
0.000000
0.000000
0.000000
0.000000
0.000000
0.000000
0.000000
0.000000
0.000000
0.000000
0.000000
0.000000
0.000000
0.000000
0.000000
0.000000
0.000000
0.000000
0.000000
0.000000
0.000000
0.000000
0.000000
0.000000
0.000000
0.000000
0.000000
0.000000
0.000000
0.000000
0.000000
0.000000
0.000000
0.000000
0.000000
0.000000
0.000000
0.000000
0.000000
0.000000
0.000000
0.000000
0.000000
0.000000
0.000000
0.000000
0.000000
0.000000
0.000000
0.000000
0.000000
0.000000
0.000000
0.000000
0.000000
0.000000
0.000000
0.000000
0.000000
0.000000
0.000000
0.000000
0.000000
0.000000
0.000000
0.000000
0.000000
0.000000
0.000000
0.000000
0.000000
0.000000
0.000000
0.000000
0.000000
0.000000
0.000000
0.000000
0.000000
0.000000
0.000000
0.000000
0.000000
0.000000
0.000000
0.000000
0.000000
0.000000
0.000000
0.000000
0.000000
0.000000
0.000000
0.000000
0.000000
0.000000
0.000000
0.000000
0.000000
0.000000
0.000000
0.000000
0.000000
0.000000
0.000000
0.000000
0.000000
0.000000
0.000000
0.000000
0.000000
0.000000
0.000000
0.000000
0.000000
0.000000
0.000000
0.000000
0.000000
0.000000
0.000000
0.000000
0.000000
0.000000
0.000000
0.000000
0.000000
0.000000
0.000000
0.000000
0.000000
0.000000
0.000000
0.000000
0.000000
0.000000
0.000000
0.000000
0.000000
0.000000
0.000000
0.000000
0.000000
0.000000
0.000000
0.000000
0.000000
0.000000
0.000000
0.000000
0.000000
0.000000
0.000000
0.000000
0.000000
0.000000
0.000000
0.000000
0.000000
0.000000
0.000000
0.000000
0.000000
0.000000
0.000000
0.000000
0.000000
0.000000
0.000000
0.000000
0.000000
0.000000
0.000000
0.000000
0.000000
0.000000
0.000000
0.000000
0.000000
0.000000
0.000000
0.000000
0.000000
0.000000
0.000000
0.000000
0.000000
0.000000
0.000000
0.000000
0.000000
0.000000
0.000000
0.000000
0.000000
0.000000
0.000000
0.000000
0.000000
0.000000
0.000000
0.000000
0.000000
0.000000
0.000000
0.000000
0.000000
0.000000
0.000000
0.000000
0.000000
0.000000
0.000000
0.000000
0.000000
0.000000
0.000000
0.000000
0.000000
0.000000
0.000000
0.000000
0.000000
0.000000
0.000000
0.000000
0.000000
0.000000
0.000000
0.000000
0.000000
0.000000
0.000000
0.000000
0.000000
0.000000
0.000000
0.000000
0.000000
0.000000
0.000000
0.000000
0.000000
0.000000
0.000000
0.000000
0.000000
0.000000
0.000000
0.000000
0.000000
0.000000
0.000000
0.000000
0.000000
0.000000
0.000000
0.000000
0.000000
0.000000
0.000000
0.000000
0.000000
0.000000
0.000000
0.000000
0.000000
0.000000
0.000000
0.000000
0.000000
0.000000
0.000000
0.000000
0.000000
0.000000
0.000000
0.000000
0.000000
0.000000
0.000000
0.000000
0.000000
0.000000
0.000000
0.000000
0.000000
0.000000
0.000000
0.000000
0.000000
0.000000
0.000000
0.000000
0.000000
0.000000
0.000000
0.000000
0.000000
0.000000
0.000000
0.000000
0.000000
0.000000
0.000000
0.000000
0.000000
0.000000
0.000000
0.000000
0.000000
0.000000
0.000000
0.000000
0.000000
0.000000
0.000000
0.000000
0.000000
0.000000
0.000000
0.000000
0.000000
0.000000
0.000000
0.000000
0.000000
0.000000
0.000000
0.000000
0.000000
0.000000
0.000000
0.000000
0.000000
0.000000
0.000000
0.000000
0.000000
0.000000
0.000000
0.000000
0.000000
0.000000
0.000000
0.000000
0.000000
0.000000
0.000000
0.000000
0.000000
0.000000
0.000000
0.000000
0.000000
0.000000
0.000000
0.000000
0.000000
0.000000
0.000000
0.000000
0.000000
0.000000
0.000000
0.000000
0.000000
0.000000
0.000000
0.000000
0.000000
0.000000
0.000000
0.000000
0.000000
0.000000
0.000000
0.000000
0.000000
0.000000
0.000000
0.000000
0.000000
0.000000
0.000000
0.000000
0.000000
0.000000
0.000000
0.000000
0.000000
0.000000
0.000000
0.000000
0.000000
0.000000
0.000000
0.000000
0.000000
0.000000
0.000000
0.000000
0.000000
0.000000
0.000000
0.000000
0.000000
0.000000
0.000000
0.000000
0.000000
0.000000
0.000000
0.000000
0.000000
0.000000
0.000000
0.000000
0.000000
0.000000
0.000000
0.000000
0.000000
0.000000
0.000000
0.000000
0.000000
0.000000
0.000000
0.000000
0.000000
0.000000
0.000000
0.000000
0.000000
0.000000
0.000000
0.000000
0.000000
0.000000
0.000000
0.000000
0.000000
0.000000
0.000000
0.000000
0.000000
0.000000
0.000000
0.000000
0.000000
0.000000
0.000000
0.000000
0.000000
0.000000
0.000000
0.000000
0.000000
0.000000
0.000000
0.000000
0.000000
0.000000
0.000000
0.000000
0.000000
0.000000
0.000000
0.000000
0.000000
0.000000
0.000000
0.000000
0.000000
0.000000
0.000000
0.000000
0.000000
0.000000
0.000000
0.000000
0.000000
0.000000
0.000000
0.000000
0.000000
0.000000
0.000000
0.000000
0.000000
0.000000
0.000000
0.000000
0.000000
0.000000
0.000000
0.000000
0.000000
0.000000
0.000000
0.000000
0.000000
0.000000
0.000000
0.000000
0.000000
0.000000
0.000000
0.000000
0.000000
0.000000
0.000000
0.000000
0.000000
0.000000
0.000000
0.000000
0.000000
0.000000
0.000000
0.000000
0.000000
0.000000
0.000000
0.000000
0.000000
0.000000
0.000000
0.000000
0.000000
0.000000
0.000000
0.000000
0.000000
0.000000
0.000000
0.000000
0.000000
0.000000
0.000000
0.000000
0.000000
0.000000
0.000000
0.000000
0.000000
0.000000
0.000000
0.000000
0.000000
0.000000
0.000000
0.000000
0.000000
0.000000
0.000000
0.000000
0.000000
0.000000
0.000000
0.000000
0.000000
0.000000
0.000000
0.000000
0.000000
0.000000
0.000000
0.000000
0.000000
0.000000
0.000000
0.000000
0.000000
0.000000
0.000000
0.000000
0.000000
0.000000
0.000000
0.000000
0.000000
0.000000
0.000000
0.000000
0.000000
0.000000
0.000000
0.000000
0.000000
0.000000
0.000000
0.000000
0.000000
0.000000
0.000000
0.000000
0.000000
0.000000
0.000000
0.000000
0.000000
0.000000
0.000000
0.000000
0.000000
0.000000
0.000000
0.000000
0.000000
0.000000
0.000000
0.000000
0.000000
0.000000
0.000000
0.000000
0.000000
0.000000
0.000000
0.000000
0.000000
0.000000
0.000000
0.000000
0.000000
0.000000
0.000000
0.000000
0.000000
0.000000
0.000000
0.000000
0.000000
0.000000
0.000000
0.000000
0.000000
0.000000
0.000000
0.000000
0.000000
0.000000
0.000000
0.000000
0.000000
0.000000
0.000000
0.000000
0.000000
0.000000
0.000000
0.000000
0.000000
0.000000
0.000000
0.000000
0.000000
0.000000
0.000000
0.000000
0.000000
0.000000
0.000000
0.000000
0.000000
0.000000
0.000000
0.000000
0.000000
0.000000
0.000000
0.000000
0.000000
0.000000
0.000000
0.000000
0.000000
0.000000
0.000000
0.000000
0.000000
0.000000
0.000000
0.000000
0.000000
0.000000
0.000000
0.000000
0.000000
0.000000
0.000000
0.000000
0.000000
0.000000
0.000000
0.000000
0.000000
0.000000
0.000000
0.000000
0.000000
0.000000
0.000000
0.000000
0.000000
0.000000
0.000000
0.000000
0.000000
0.000000
0.000000
0.000000
0.000000
0.000000
0.000000
0.000000
0.000000
0.000000
0.000000
0.000000
0.000000
0.000000
0.000000
0.000000
0.000000
0.000000
0.000000
0.000000
0.000000
0.000000
0.000000
0.000000
0.000000
0.000000
0.000000
0.000000
0.000000
0.000000
0.000000
0.000000
0.000000
0.000000
0.000000
0.000000
0.000000
0.000000
0.000000
0.000000
0.000000
0.000000
0.000000
0.000000
0.000000
0.000000
0.000000
0.000000
0.000000
0.000000
0.000000
0.000000
0.000000
0.000000
0.000000
0.000000
0.000000
0.000000
0.000000
0.000000
0.000000
0.000000
0.000000
0.000000
0.000000
0.000000
0.000000
0.000000
0.000000
0.000000
0.000000
0.000000
0.000000
0.000000
0.000000
0.000000
0.000000
0.000000
0.000000
0.000000
0.000000
0.000000
0.000000
0.000000
0.000000
0.000000
0.000000
0.000000
0.000000
0.000000
0.000000
0.000000
0.000000
0.000000
0.000000
0.000000
0.000000
0.000000
0.000000
0.000000
0.000000
0.000000
0.000000
0.000000
0.000000
0.000000
0.000000
0.000000
0.000000
0.000000
0.000000
0.000000
0.000000
0.000000
0.000000
0.000000
0.000000
0.000000
0.000000
0.000000
0.000000
0.000000
0.000000
0.000000
0.000000
0.000000
0.000000
0.000000
0.000000
0.000000
0.000000
0.000000
0.000000
0.000000
0.000000
0.000000
0.000000
0.000000
0.000000
0.000000
0.000000
0.000000
0.000000
0.000000
0.000000
0.000000
0.000000
0.000000
0.000000
0.000000
0.000000
0.000000
0.000000
0.000000
0.000000
0.000000
0.000000
0.000000
0.000000
0.000000
0.000000
0.000000
0.000000
0.000000
0.000000
0.000000
0.000000
0.000000
0.000000
0.000000
0.000000
0.000000
0.000000
0.000000
0.000000
0.000000
0.000000
0.000000
0.000000
0.000000
0.000000
0.000000
0.000000
0.000000
0.000000
0.000000
0.000000
0.000000
0.000000
0.000000
0.000000
0.000000
0.000000
0.000000
0.000000
0.000000
0.000000
0.000000
0.000000
0.000000
0.000000
0.000000
0.000000
0.000000
0.000000
0.000000
0.000000
0.000000
0.000000
0.000000
0.000000
0.000000
0.000000
0.000000
0.000000
0.000000
0.000000
0.000000
0.000000
0.000000
0.000000
0.000000
0.000000
0.000000
0.000000
0.000000
0.000000
0.000000
0.000000
0.000000
0.000000
0.000000
0.000000
0.000000
0.000000
0.000000
0.000000
0.000000
0.000000
0.000000
0.000000
0.000000
0.000000
0.000000
0.000000
0.000000
0.000000
0.000000
0.000000
0.000000
0.000000
0.000000
0.000000
0.000000
0.000000
0.000000
0.000000
0.000000
0.000000
0.000000
0.000000
0.000000
0.000000
0.000000
0.000000
0.000000
0.000000
0.000000
0.000000
0.000000
0.000000
0.000000
0.000000
0.000000
0.000000
0.000000
0.000000
0.000000
0.000000
0.000000
0.000000
0.000000
0.000000
0.000000
0.000000
0.000000
0.000000
0.000000
0.000000
0.000000
0.000000
0.000000
0.000000
0.000000
0.000000
0.000000
0.000000
0.000000
0.000000
0.000000
0.000000
0.000000
0.000000
0.000000
0.000000
0.000000
0.000000
0.000000
0.000000
0.000000
0.000000
0.000000
0.000000
0.000000
0.000000
0.000000
0.000000
0.000000
0.000000
0.000000
0.000000
0.000000
0.000000
0.000000
0.000000
0.000000
0.000000
0.000000
0.000000
0.000000
0.000000
0.000000
0.000000
0.000000
0.000000
0.000000
0.000000
0.000000
0.000000
0.000000
0.000000
0.000000
0.000000
0.000000
0.000000
0.000000
0.000000
0.000000
0.000000
0.000000
0.000000
0.000000
0.000000
0.000000
0.000000
0.000000
0.000000
0.000000
0.000000
0.000000
0.000000
0.000000
0.000000
0.000000
0.000000
0.000000
0.000000
0.000000
0.000000
0.000000
0.000000
0.000000
0.000000
0.000000
0.000000
0.000000
0.000000
0.000000
0.000000
0.000000
0.000000
0.000000
0.000000
0.000000
0.000000
0.000000
0.000000
0.000000
0.000000
0.000000
0.000000
0.000000
0.000000
0.000000
0.000000
0.000000
0.000000
0.000000
0.000000
0.000000
0.000000
0.000000
0.000000
0.000000
0.000000
0.000000
0.000000
0.000000
0.000000
0.000000
0.000000
0.000000
0.000000
0.000000
0.000000
0.000000
0.000000
0.000000
0.000000
0.000000
0.000000
0.000000
0.000000
0.000000
0.000000
0.000000
0.000000
0.000000
0.000000
0.000000
0.000000
0.000000
0.000000
0.000000
0.000000
0.000000
0.000000
0.000000
0.000000
0.000000
0.000000
0.000000
0.000000
0.000000
0.000000
0.000000
0.000000
0.000000
0.000000
0.000000
0.000000
0.000000
0.000000
0.000000
0.000000
0.000000
0.000000
0.000000
0.000000
0.000000
0.000000
0.000000
0.000000
0.000000
0.000000
0.000000
0.000000
0.000000
0.000000
0.000000
0.000000
0.000000
0.000000
0.000000
0.000000
0.000000
0.000000
0.000000
0.000000
0.000000
0.000000
0.000000
0.000000
0.000000
0.000000
0.000000
0.000000
0.000000
0.000000
0.000000
0.000000
0.000000
0.000000
0.000000
0.000000
0.000000
0.000000
0.000000
0.000000
0.000000
0.000000
0.000000
0.000000
0.000000
0.000000
0.000000
0.000000
0.000000
0.000000
0.000000
0.000000
0.000000
0.000000
0.000000
0.000000
0.000000
0.000000
0.000000
0.000000
0.000000
0.000000
0.000000
0.000000
0.000000
0.000000
0.000000
0.000000
0.000000
0.000000
0.000000
0.000000
0.000000
0.000000
0.000000
0.000000
0.000000
0.000000
0.000000
0.000000
0.000000
0.000000
0.000000
0.000000
0.000000
0.000000
0.000000
0.000000
0.000000
0.000000
0.000000
0.000000
0.000000
0.000000
0.000000
0.000000
0.000000
0.000000
0.000000
0.000000
0.000000
0.000000
0.000000
0.000000
0.000000
0.000000
0.000000
0.000000
0.000000
0.000000
0.000000
0.000000
0.000000
0.000000
0.000000
0.000000
0.000000
0.000000
0.000000
0.000000
0.000000
0.000000
0.000000
0.000000
0.000000
0.000000
0.000000
0.000000
0.000000
0.000000
0.000000
0.000000
0.000000
0.000000
0.000000
0.000000
0.000000
0.000000
0.000000
0.000000
0.000000
0.000000
0.000000
0.000000
0.000000
0.000000
0.000000
0.000000
0.000000
0.000000
0.000000
0.000000
0.000000
0.000000
0.000000
0.000000
0.000000
0.000000
0.000000
0.000000
0.000000
0.000000
0.000000
0.000000
0.000000
0.000000
0.000000
0.000000
0.000000
0.000000
0.000000
0.000000
0.000000
0.000000
0.000000
0.000000
0.000000
0.000000
0.000000
0.000000
0.000000
0.000000
0.000000
0.000000
0.000000
0.000000
0.000000
0.000000
0.000000
0.000000
0.000000
0.000000
0.000000
0.000000
0.000000
0.000000
0.000000
0.000000
0.000000
0.000000
0.000000
0.000000
0.000000
0.000000
0.000000
0.000000
0.000000
0.000000
0.000000
0.000000
0.000000
0.000000
0.000000
0.000000
0.000000
0.000000
0.000000
0.000000
0.000000
0.000000
0.000000
0.000000
0.000000
0.000000
0.000000
0.000000
0.000000
0.000000
0.000000
0.000000
0.000000
0.000000
0.000000
0.000000
0.000000
0.000000
0.000000
0.000000
0.000000
0.000000
0.000000
0.000000
0.000000
0.000000
0.000000
0.000000
0.000000
0.000000
0.000000
0.000000
0.000000
0.000000
0.000000
0.000000
0.000000
0.000000
0.000000
0.000000
0.000000
0.000000
0.000000
0.000000
0.000000
0.000000
0.000000
0.000000
0.000000
0.000000
0.000000
0.000000
0.000000
0.000000
0.000000
0.000000
0.000000
0.000000
0.000000
0.000000
0.000000
0.000000
0.000000
0.000000
0.000000
0.000000
0.000000
0.000000
0.000000
0.000000
0.000000
0.000000
0.000000
0.000000
0.000000
0.000000
0.000000
0.000000
0.000000
0.000000
0.000000
0.000000
0.000000
0.000000
0.000000
0.000000
0.000000
0.000000
0.000000
0.000000
0.000000
0.000000
0.000000
0.000000
0.000000
0.000000
0.000000
0.000000
0.000000
0.000000
0.000000
0.000000
0.000000
0.000000
0.000000
0.000000
0.000000
0.000000
0.000000
0.000000
0.000000
0.000000
0.000000
0.000000
0.000000
0.000000
0.000000
0.000000
0.000000
0.000000
0.000000
0.000000
0.000000
0.000000
0.000000
0.000000
0.000000
0.000000
0.000000
0.000000
0.000000
0.000000
0.000000
0.000000
0.000000
0.000000
0.000000
0.000000
0.000000
0.000000
0.000000
0.000000
0.000000
0.000000
0.000000
0.000000
0.000000
0.000000
0.000000
0.000000
0.000000
0.000000
0.000000
0.000000
0.000000
0.000000
0.000000
0.000000
0.000000
0.000000
0.000000
0.000000
0.000000
0.000000
0.000000
0.000000
0.000000
0.000000
0.000000
0.000000
0.000000
0.000000
0.000000
0.000000
0.000000
0.000000
0.000000
0.000000
0.000000
0.000000
0.000000
0.000000
0.000000
0.000000
0.000000
0.000000
0.000000
0.000000
0.000000
0.000000
0.000000
0.000000
0.000000
0.000000
0.000000
0.000000
0.000000
0.000000
0.000000
0.000000
0.000000
0.000000
0.000000
0.000000
0.000000
0.000000
0.000000
0.000000
0.000000
0.000000
0.000000
0.000000
0.000000
0.000000
0.000000
0.000000
0.000000
0.000000
0.000000
0.000000
0.000000
0.000000
0.000000
0.000000
0.000000
0.000000
0.000000
0.000000
0.000000
0.000000
0.000000
0.000000
0.000000
0.000000
0.000000
0.000000
0.000000
0.000000
0.000000
0.000000
0.000000
0.000000
0.000000
0.000000
0.000000
0.000000
0.000000
0.000000
0.000000
0.000000
0.000000
0.000000
0.000000
0.000000
0.000000
0.000000
0.000000
0.000000
0.000000
0.000000
0.000000
0.000000
0.000000
0.000000
0.000000
0.000000
0.000000
0.000000
0.000000
0.000000
0.000000
0.000000
0.000000
0.000000
0.000000
0.000000
0.000000
0.000000
0.000000
0.000000
0.000000
0.000000
0.000000
0.000000
0.000000
0.000000
0.000000
0.000000
0.000000
0.000000
0.000000
0.000000
0.000000
0.000000
0.000000
0.000000
0.000000
0.000000
0.000000
0.000000
0.000000
0.000000
0.000000
0.000000
0.000000
0.000000
0.000000
0.000000
0.000000
0.000000
0.000000
0.000000
0.000000
0.000000
0.000000
0.000000
0.000000
0.000000
0.000000
0.000000
0.000000
0.000000
0.000000
0.000000
0.000000
0.000000
0.000000
0.000000
0.000000
0.000000
0.000000
0.000000
0.000000
0.000000
0.000000
0.000000
0.000000
0.000000
0.000000
0.000000
0.000000
0.000000
0.000000
0.000000
0.000000
0.000000
0.000000
0.000000
0.000000
0.000000
0.000000
0.000000
0.000000
0.000000
0.000000
0.000000
0.000000
0.000000
0.000000
0.000000
0.000000
0.000000
0.000000
0.000000
0.000000
0.000000
0.000000
0.000000
0.000000
0.000000
0.000000
0.000000
0.000000
0.000000
0.000000
0.000000
0.000000
0.000000
0.000000
0.000000
0.000000
0.000000
0.000000
0.000000
0.000000
0.000000
0.000000
0.000000
0.000000
0.000000
0.000000
0.000000
0.000000
0.000000
0.000000
0.000000
0.000000
0.000000
0.000000
0.000000
0.000000
0.000000
0.000000
0.000000
0.000000
0.000000
0.000000
0.000000
0.000000
0.000000
0.000000
0.000000
0.000000
0.000000
0.000000
0.000000
0.000000
0.000000
0.000000
0.000000
0.000000
0.000000
0.000000
0.000000
0.000000
0.000000
0.000000
0.000000
0.000000
0.000000
0.000000
0.000000
0.000000
0.000000
0.000000
0.000000
0.000000
0.000000
0.000000
0.000000
0.000000
0.000000
0.000000
0.000000
0.000000
0.000000
0.000000
0.000000
0.000000
0.000000
0.000000
0.000000
0.000000
0.000000
0.000000
0.000000
0.000000
0.000000
0.000000
0.000000
0.000000
0.000000
0.000000
0.000000
0.000000
0.000000
0.000000
0.000000
0.000000
0.000000
0.000000
0.000000
0.000000
0.000000
0.000000
0.000000
0.000000
0.000000
0.000000
0.000000
0.000000
0.000000
0.000000
0.000000
0.000000
0.000000
0.000000
0.000000
0.000000
0.000000
0.000000
0.000000
0.000000
0.000000
0.000000
0.000000
0.000000
0.000000
0.000000
0.000000
0.000000
0.000000
0.000000
0.000000
0.000000
0.000000
0.000000
0.000000
0.000000
0.000000
0.000000
0.000000
0.000000
0.000000
0.000000
0.000000
0.000000
0.000000
0.000000
0.000000
0.000000
0.000000
0.000000
0.000000
0.000000
0.000000
0.000000
0.000000
0.000000
0.000000
0.000000
0.000000
0.000000
0.000000
0.000000
0.000000
0.000000
0.000000
0.000000
0.000000
0.000000
0.000000
0.000000
0.000000
0.000000
0.000000
0.000000
0.000000
0.000000
0.000000
0.000000
0.000000
0.000000
0.000000
0.000000
0.000000
0.000000
0.000000
0.000000
0.000000
0.000000
0.000000
0.000000
0.000000
0.000000
0.000000
0.000000
0.000000
0.000000
0.000000
0.000000
0.000000
0.000000
0.000000
0.000000
0.000000
0.000000
0.000000
0.000000
0.000000
0.000000
0.000000
0.000000
0.000000
0.000000
0.000000
0.000000
0.000000
0.000000
0.000000
0.000000
0.000000
0.000000
0.000000
0.000000
0.000000
0.000000
0.000000
0.000000
0.000000
0.000000
0.000000
0.000000
0.000000
0.000000
0.000000
0.000000
0.000000
0.000000
0.000000
0.000000
0.000000
0.000000
0.000000
0.000000
0.000000
0.000000
0.000000
0.000000
0.000000
0.000000
0.000000
0.000000
0.000000
0.000000
0.000000
0.000000
0.000000
0.000000
0.000000
0.000000
0.000000
0.000000
0.000000
0.000000
0.000000
0.000000
0.000000
0.000000
0.000000
0.000000
0.000000
0.000000
0.000000
0.000000
0.000000
0.000000
0.000000
0.000000
0.000000
0.000000
0.000000
0.000000
0.000000
0.000000
0.000000
0.000000
0.000000
0.000000
0.000000
0.000000
0.000000
0.000000
0.000000
0.000000
0.000000
0.000000
0.000000
0.000000
0.000000
0.000000
0.000000
0.000000
0.000000
0.000000
0.000000
0.000000
0.000000
0.000000
0.000000
0.000000
0.000000
0.000000
0.000000
0.000000
0.000000
0.000000
0.000000
0.000000
0.000000
0.000000
0.000000
0.000000
0.000000
0.000000
0.000000
0.000000
0.000000
0.000000
0.000000
0.000000
0.000000
0.000000
0.000000
0.000000
0.000000
0.000000
0.000000
0.000000
0.000000
0.000000
0.000000
0.000000
0.000000
0.000000
0.000000
0.000000
0.000000
0.000000
0.000000
0.000000
0.000000
0.000000
0.000000
0.000000
0.000000
0.000000
0.000000
0.000000
0.000000
0.000000
0.000000
0.000000
0.000000
0.000000
0.000000
0.000000
0.000000
0.000000
0.000000
0.000000
0.000000
0.000000
0.000000
0.000000
0.000000
0.000000
0.000000
0.000000
0.000000
0.000000
0.000000
0.000000
0.000000
0.000000
0.000000
0.000000
0.000000
0.000000
0.000000
0.000000
0.000000
0.000000
0.000000
0.000000
0.000000
0.000000
0.000000
0.000000
0.000000
0.000000
0.000000
0.000000
0.000000
0.000000
0.000000
0.000000
0.000000
0.000000
0.000000
0.000000
0.000000
0.000000
0.000000
0.000000
0.000000
0.000000
0.000000
0.000000
0.000000
0.000000
0.000000
0.000000
0.000000
0.000000
0.000000
0.000000
0.000000
0.000000
0.000000
0.000000
0.000000
0.000000
0.000000
0.000000
0.000000
0.000000
0.000000
0.000000
0.000000
0.000000
0.000000
0.000000
0.000000
0.000000
0.000000
0.000000
0.000000
0.000000
0.000000
0.000000
0.000000
0.000000
0.000000
0.000000
0.000000
0.000000
0.000000
0.000000
0.000000
0.000000
0.000000
0.000000
0.000000
0.000000
0.000000
0.000000
0.000000
0.000000
0.000000
0.000000
0.000000
0.000000
0.000000
0.000000
0.000000
0.000000
0.000000
0.000000
0.000000
0.000000
0.000000
0.000000
0.000000
0.000000
0.000000
0.000000
0.000000
0.000000
0.000000
0.000000
0.000000
0.000000
0.000000
0.000000
0.000000
0.000000
0.000000
0.000000
0.000000
0.000000
0.000000
0.000000
0.000000
0.000000
0.000000
0.000000
0.000000
0.000000
0.000000
0.000000
0.000000
0.000000
0.000000
0.000000
0.000000
0.000000
0.000000
0.000000
0.000000
0.000000
0.000000
0.000000
0.000000
0.000000
0.000000
0.000000
0.000000
0.000000
0.000000
0.000000
0.000000
0.000000
0.000000
0.000000
0.000000
0.000000
0.000000
0.000000
0.000000
0.000000
0.000000
0.000000
0.000000
0.000000
0.000000
0.000000
0.000000
0.000000
0.000000
0.000000
0.000000
0.000000
0.000000
0.000000
0.000000
0.000000
0.000000
0.000000
0.000000
0.000000
0.000000
0.000000
0.000000
0.000000
0.000000
0.000000
0.000000
0.000000
0.000000
0.000000
0.000000
0.000000
0.000000
0.000000
0.000000
0.000000
0.000000
0.000000
0.000000
0.000000
0.000000
0.000000
0.000000
0.000000
0.000000
0.000000
0.000000
0.000000
0.000000
0.000000
0.000000
0.000000
0.000000
0.000000
0.000000
0.000000
0.000000
0.000000
0.000000
0.000000
0.000000
0.000000
0.000000
0.000000
0.000000
0.000000
0.000000
0.000000
0.000000
0.000000
0.000000
0.000000
0.000000
0.000000
0.000000
0.000000
0.000000
0.000000
0.000000
0.000000
0.000000
0.000000
0.000000
0.000000
0.000000
0.000000
0.000000
0.000000
0.000000
0.000000
0.000000
0.000000
0.000000
0.000000
0.000000
0.000000
0.000000
0.000000
0.000000
0.000000
0.000000
0.000000
0.000000
0.000000
0.000000
0.000000
0.000000
0.000000
0.000000
0.000000
0.000000
0.000000
0.000000
0.000000
0.000000
0.000000
0.000000
0.000000
0.000000
0.000000
0.000000
0.000000
0.000000
0.000000
0.000000
0.000000
0.000000
0.000000
0.000000
0.000000
0.000000
0.000000
0.000000
0.000000
0.000000
0.000000
0.000000
0.000000
0.000000
0.000000
0.000000
0.000000
0.000000
0.000000
0.000000
0.000000
0.000000
0.000000
0.000000
0.000000
0.000000
0.000000
0.000000
0.000000
0.000000
0.000000
0.000000
0.000000
0.000000
0.000000
0.000000
0.000000
0.000000
0.000000
0.000000
0.000000
0.000000
0.000000
0.000000
0.000000
0.000000
0.000000
0.000000
0.000000
0.000000
0.000000
0.000000
0.000000
0.000000
0.000000
0.000000
0.000000
0.000000
0.000000
0.000000
0.000000
0.000000
0.000000
0.000000
0.000000
0.000000
0.000000
0.000000
0.000000
0.000000
0.000000
0.000000
0.000000
0.000000
0.000000
0.000000
0.000000
0.000000
0.000000
0.000000
0.000000
0.000000
0.000000
0.000000
0.000000
0.000000
0.000000
0.000000
0.000000
0.000000
0.000000
0.000000
0.000000
0.000000
0.000000
0.000000
0.000000
0.000000
0.000000
0.000000
0.000000
0.000000
0.000000
0.000000
0.000000
0.000000
0.000000
0.000000
0.000000
0.000000
0.000000
0.000000
0.000000
0.000000
0.000000
0.000000
0.000000
0.000000
0.000000
0.000000
0.000000
0.000000
0.000000
0.000000
0.000000
0.000000
0.000000
0.000000
0.000000
0.000000
0.000000
0.000000
0.000000
0.000000
0.000000
0.000000
0.000000
0.000000
0.000000
0.000000
0.000000
0.000000
0.000000
0.000000
0.000000
0.000000
0.000000
0.000000
0.000000
0.000000
0.000000
0.000000
0.000000
0.000000
0.000000
0.000000
0.000000
0.000000
0.000000
0.000000
0.000000
0.000000
0.000000
0.000000
0.000000
0.000000
0.000000
0.000000
0.000000
0.000000
0.000000
0.000000
0.000000
0.000000
0.000000
0.000000
0.000000
0.000000
0.000000
0.000000
0.000000
0.000000
0.000000
0.000000
0.000000
0.000000
0.000000
0.000000
0.000000
0.000000
0.000000
0.000000
0.000000
0.000000
0.000000
0.000000
0.000000
0.000000
0.000000
0.000000
0.000000
0.000000
0.000000
0.000000
0.000000
0.000000
0.000000
0.000000
0.000000
0.000000
0.000000
0.000000
0.000000
0.000000
0.000000
0.000000
0.000000
0.000000
0.000000
0.000000
0.000000
0.000000
0.000000
0.000000
0.000000
0.000000
0.000000
0.000000
0.000000
0.000000
0.000000
0.000000
0.000000
0.000000
0.000000
0.000000
0.000000
0.000000
0.000000
0.000000
0.000000
0.000000
0.000000
0.000000
0.000000
0.000000
0.000000
0.000000
0.000000
0.000000
0.000000
0.000000
0.000000
0.000000
0.000000
0.000000
0.000000
0.000000
0.000000
0.000000
0.000000
0.000000
0.000000
0.000000
0.000000
0.000000
0.000000
0.000000
0.000000
0.000000
0.000000
0.000000
0.000000
0.000000
0.000000
0.000000
0.000000
0.000000
0.000000
0.000000
0.000000
0.000000
0.000000
0.000000
0.000000
0.000000
0.000000
0.000000
0.000000
0.000000
0.000000
0.000000
0.000000
0.000000
0.000000
0.000000
0.000000
0.000000
0.000000
0.000000
0.000000
0.000000
0.000000
0.000000
0.000000
0.000000
0.000000
0.000000
SCALARS	2ndPrincipleStress	float	1
LOOKUP_TABLE	default
0.000000
0.000000
0.000000
0.000000
0.000000
0.000000
0.000000
0.000000
0.000000
0.000000
0.000000
0.000000
0.000000
0.000000
0.000000
0.000000
0.000000
0.000000
0.000000
0.000000
0.000000
0.000000
0.000000
0.000000
0.000000
0.000000
0.000000
0.000000
0.000000
0.000000
0.000000
0.000000
0.000000
0.000000
0.000000
0.000000
0.000000
0.000000
0.000000
0.000000
0.000000
0.000000
0.000000
0.000000
0.000000
0.000000
0.000000
0.000000
0.000000
0.000000
0.000000
0.000000
0.000000
0.000000
0.000000
0.000000
0.000000
0.000000
0.000000
0.000000
0.000000
0.000000
0.000000
0.000000
0.000000
0.000000
0.000000
0.000000
0.000000
0.000000
0.000000
0.000000
0.000000
0.000000
0.000000
0.000000
0.000000
0.000000
0.000000
0.000000
0.000000
0.000000
0.000000
0.000000
0.000000
0.000000
0.000000
0.000000
0.000000
0.000000
0.000000
0.000000
0.000000
0.000000
0.000000
0.000000
0.000000
0.000000
0.000000
0.000000
0.000000
0.000000
0.000000
0.000000
0.000000
0.000000
0.000000
0.000000
0.000000
0.000000
0.000000
0.000000
0.000000
0.000000
0.000000
0.000000
0.000000
0.000000
0.000000
0.000000
0.000000
0.000000
0.000000
0.000000
0.000000
0.000000
0.000000
0.000000
0.000000
0.000000
0.000000
0.000000
0.000000
0.000000
0.000000
0.000000
0.000000
0.000000
0.000000
0.000000
0.000000
0.000000
0.000000
0.000000
0.000000
0.000000
0.000000
0.000000
0.000000
0.000000
0.000000
0.000000
0.000000
0.000000
0.000000
0.000000
0.000000
0.000000
0.000000
0.000000
0.000000
0.000000
0.000000
0.000000
0.000000
0.000000
0.000000
0.000000
0.000000
0.000000
0.000000
0.000000
0.000000
0.000000
0.000000
0.000000
0.000000
0.000000
0.000000
0.000000
0.000000
0.000000
0.000000
0.000000
0.000000
0.000000
0.000000
0.000000
0.000000
0.000000
0.000000
0.000000
0.000000
0.000000
0.000000
0.000000
0.000000
0.000000
0.000000
0.000000
0.000000
0.000000
0.000000
0.000000
0.000000
0.000000
0.000000
0.000000
0.000000
0.000000
0.000000
0.000000
0.000000
0.000000
0.000000
0.000000
0.000000
0.000000
0.000000
0.000000
0.000000
0.000000
0.000000
0.000000
0.000000
0.000000
0.000000
0.000000
0.000000
0.000000
0.000000
0.000000
0.000000
0.000000
0.000000
0.000000
0.000000
0.000000
0.000000
0.000000
0.000000
0.000000
0.000000
0.000000
0.000000
0.000000
0.000000
0.000000
0.000000
0.000000
0.000000
0.000000
0.000000
0.000000
0.000000
0.000000
0.000000
0.000000
0.000000
0.000000
0.000000
0.000000
0.000000
0.000000
0.000000
0.000000
0.000000
0.000000
0.000000
0.000000
0.000000
0.000000
0.000000
0.000000
0.000000
0.000000
0.000000
0.000000
0.000000
0.000000
0.000000
0.000000
0.000000
0.000000
0.000000
0.000000
0.000000
0.000000
0.000000
0.000000
0.000000
0.000000
0.000000
0.000000
0.000000
0.000000
0.000000
0.000000
0.000000
0.000000
0.000000
0.000000
0.000000
0.000000
0.000000
0.000000
0.000000
0.000000
0.000000
0.000000
0.000000
0.000000
0.000000
0.000000
0.000000
0.000000
0.000000
0.000000
0.000000
0.000000
0.000000
0.000000
0.000000
0.000000
0.000000
0.000000
0.000000
0.000000
0.000000
0.000000
0.000000
0.000000
0.000000
0.000000
0.000000
0.000000
0.000000
0.000000
0.000000
0.000000
0.000000
0.000000
0.000000
0.000000
0.000000
0.000000
0.000000
0.000000
0.000000
0.000000
0.000000
0.000000
0.000000
0.000000
0.000000
0.000000
0.000000
0.000000
0.000000
0.000000
0.000000
0.000000
0.000000
0.000000
0.000000
0.000000
0.000000
0.000000
0.000000
0.000000
0.000000
0.000000
0.000000
0.000000
0.000000
0.000000
0.000000
0.000000
0.000000
0.000000
0.000000
0.000000
0.000000
0.000000
0.000000
0.000000
0.000000
0.000000
0.000000
0.000000
0.000000
0.000000
0.000000
0.000000
0.000000
0.000000
0.000000
0.000000
0.000000
0.000000
0.000000
0.000000
0.000000
0.000000
0.000000
0.000000
0.000000
0.000000
0.000000
0.000000
0.000000
0.000000
0.000000
0.000000
0.000000
0.000000
0.000000
0.000000
0.000000
0.000000
0.000000
0.000000
0.000000
0.000000
0.000000
0.000000
0.000000
0.000000
0.000000
0.000000
0.000000
0.000000
0.000000
0.000000
0.000000
0.000000
0.000000
0.000000
0.000000
0.000000
0.000000
0.000000
0.000000
0.000000
0.000000
0.000000
0.000000
0.000000
0.000000
0.000000
0.000000
0.000000
0.000000
0.000000
0.000000
0.000000
0.000000
0.000000
0.000000
0.000000
0.000000
0.000000
0.000000
0.000000
0.000000
0.000000
0.000000
0.000000
0.000000
0.000000
0.000000
0.000000
0.000000
0.000000
0.000000
0.000000
0.000000
0.000000
0.000000
0.000000
0.000000
0.000000
0.000000
0.000000
0.000000
0.000000
0.000000
0.000000
0.000000
0.000000
0.000000
0.000000
0.000000
0.000000
0.000000
0.000000
0.000000
0.000000
0.000000
0.000000
0.000000
0.000000
0.000000
0.000000
0.000000
0.000000
0.000000
0.000000
0.000000
0.000000
0.000000
0.000000
0.000000
0.000000
0.000000
0.000000
0.000000
0.000000
0.000000
0.000000
0.000000
0.000000
0.000000
0.000000
0.000000
0.000000
0.000000
0.000000
0.000000
0.000000
0.000000
0.000000
0.000000
0.000000
0.000000
0.000000
0.000000
0.000000
0.000000
0.000000
0.000000
0.000000
0.000000
0.000000
0.000000
0.000000
0.000000
0.000000
0.000000
0.000000
0.000000
0.000000
0.000000
0.000000
0.000000
0.000000
0.000000
0.000000
0.000000
0.000000
0.000000
0.000000
0.000000
0.000000
0.000000
0.000000
0.000000
0.000000
0.000000
0.000000
0.000000
0.000000
0.000000
0.000000
0.000000
0.000000
0.000000
0.000000
0.000000
0.000000
0.000000
0.000000
0.000000
0.000000
0.000000
0.000000
0.000000
0.000000
0.000000
0.000000
0.000000
0.000000
0.000000
0.000000
0.000000
0.000000
0.000000
0.000000
0.000000
0.000000
0.000000
0.000000
0.000000
0.000000
0.000000
0.000000
0.000000
0.000000
0.000000
0.000000
0.000000
0.000000
0.000000
0.000000
0.000000
0.000000
0.000000
0.000000
0.000000
0.000000
0.000000
0.000000
0.000000
0.000000
0.000000
0.000000
0.000000
0.000000
0.000000
0.000000
0.000000
0.000000
0.000000
0.000000
0.000000
0.000000
0.000000
0.000000
0.000000
0.000000
0.000000
0.000000
0.000000
0.000000
0.000000
0.000000
0.000000
0.000000
0.000000
0.000000
0.000000
0.000000
0.000000
0.000000
0.000000
0.000000
0.000000
0.000000
0.000000
0.000000
0.000000
0.000000
0.000000
0.000000
0.000000
0.000000
0.000000
0.000000
0.000000
0.000000
0.000000
0.000000
0.000000
0.000000
0.000000
0.000000
0.000000
0.000000
0.000000
0.000000
0.000000
0.000000
0.000000
0.000000
0.000000
0.000000
0.000000
0.000000
0.000000
0.000000
0.000000
0.000000
0.000000
0.000000
0.000000
0.000000
0.000000
0.000000
0.000000
0.000000
0.000000
0.000000
0.000000
0.000000
0.000000
0.000000
0.000000
0.000000
0.000000
0.000000
0.000000
0.000000
0.000000
0.000000
0.000000
0.000000
0.000000
0.000000
0.000000
0.000000
0.000000
0.000000
0.000000
0.000000
0.000000
0.000000
0.000000
0.000000
0.000000
0.000000
0.000000
0.000000
0.000000
0.000000
0.000000
0.000000
0.000000
0.000000
0.000000
0.000000
0.000000
0.000000
0.000000
0.000000
0.000000
0.000000
0.000000
0.000000
0.000000
0.000000
0.000000
0.000000
0.000000
0.000000
0.000000
0.000000
0.000000
0.000000
0.000000
0.000000
0.000000
0.000000
0.000000
0.000000
0.000000
0.000000
0.000000
0.000000
0.000000
0.000000
0.000000
0.000000
0.000000
0.000000
0.000000
0.000000
0.000000
0.000000
0.000000
0.000000
0.000000
0.000000
0.000000
0.000000
0.000000
0.000000
0.000000
0.000000
0.000000
0.000000
0.000000
0.000000
0.000000
0.000000
0.000000
0.000000
0.000000
0.000000
0.000000
0.000000
0.000000
0.000000
0.000000
0.000000
0.000000
0.000000
0.000000
0.000000
0.000000
0.000000
0.000000
0.000000
0.000000
0.000000
0.000000
0.000000
0.000000
0.000000
0.000000
0.000000
0.000000
0.000000
0.000000
0.000000
0.000000
0.000000
0.000000
0.000000
0.000000
0.000000
0.000000
0.000000
0.000000
0.000000
0.000000
0.000000
0.000000
0.000000
0.000000
0.000000
0.000000
0.000000
0.000000
0.000000
0.000000
0.000000
0.000000
0.000000
0.000000
0.000000
0.000000
0.000000
0.000000
0.000000
0.000000
0.000000
0.000000
0.000000
0.000000
0.000000
0.000000
0.000000
0.000000
0.000000
0.000000
0.000000
0.000000
0.000000
0.000000
0.000000
0.000000
0.000000
0.000000
0.000000
0.000000
0.000000
0.000000
0.000000
0.000000
0.000000
0.000000
0.000000
0.000000
0.000000
0.000000
0.000000
0.000000
0.000000
0.000000
0.000000
0.000000
0.000000
0.000000
0.000000
0.000000
0.000000
0.000000
0.000000
0.000000
0.000000
0.000000
0.000000
0.000000
0.000000
0.000000
0.000000
0.000000
0.000000
0.000000
0.000000
0.000000
0.000000
0.000000
0.000000
0.000000
0.000000
0.000000
0.000000
0.000000
0.000000
0.000000
0.000000
0.000000
0.000000
0.000000
0.000000
0.000000
0.000000
0.000000
0.000000
0.000000
0.000000
0.000000
0.000000
0.000000
0.000000
0.000000
0.000000
0.000000
0.000000
0.000000
0.000000
0.000000
0.000000
0.000000
0.000000
0.000000
0.000000
0.000000
0.000000
0.000000
0.000000
0.000000
0.000000
0.000000
0.000000
0.000000
0.000000
0.000000
0.000000
0.000000
0.000000
0.000000
0.000000
0.000000
0.000000
0.000000
0.000000
0.000000
0.000000
0.000000
0.000000
0.000000
0.000000
0.000000
0.000000
0.000000
0.000000
0.000000
0.000000
0.000000
0.000000
0.000000
0.000000
0.000000
0.000000
0.000000
0.000000
0.000000
0.000000
0.000000
0.000000
0.000000
0.000000
0.000000
0.000000
0.000000
0.000000
0.000000
0.000000
0.000000
0.000000
0.000000
0.000000
0.000000
0.000000
0.000000
0.000000
0.000000
0.000000
0.000000
0.000000
0.000000
0.000000
0.000000
0.000000
0.000000
0.000000
0.000000
0.000000
0.000000
0.000000
0.000000
0.000000
0.000000
0.000000
0.000000
0.000000
0.000000
0.000000
0.000000
0.000000
0.000000
0.000000
0.000000
0.000000
0.000000
0.000000
0.000000
0.000000
0.000000
0.000000
0.000000
0.000000
0.000000
0.000000
0.000000
0.000000
0.000000
0.000000
0.000000
0.000000
0.000000
0.000000
0.000000
0.000000
0.000000
0.000000
0.000000
0.000000
0.000000
0.000000
0.000000
0.000000
0.000000
0.000000
0.000000
0.000000
0.000000
0.000000
0.000000
0.000000
0.000000
0.000000
0.000000
0.000000
0.000000
0.000000
0.000000
0.000000
0.000000
0.000000
0.000000
0.000000
0.000000
0.000000
0.000000
0.000000
0.000000
0.000000
0.000000
0.000000
0.000000
0.000000
0.000000
0.000000
0.000000
0.000000
0.000000
0.000000
0.000000
0.000000
0.000000
0.000000
0.000000
0.000000
0.000000
0.000000
0.000000
0.000000
0.000000
0.000000
0.000000
0.000000
0.000000
0.000000
0.000000
0.000000
0.000000
0.000000
0.000000
0.000000
0.000000
0.000000
0.000000
0.000000
0.000000
0.000000
0.000000
0.000000
0.000000
0.000000
0.000000
0.000000
0.000000
0.000000
0.000000
0.000000
0.000000
0.000000
0.000000
0.000000
0.000000
0.000000
0.000000
0.000000
0.000000
0.000000
0.000000
0.000000
0.000000
0.000000
0.000000
0.000000
0.000000
0.000000
0.000000
0.000000
0.000000
0.000000
0.000000
0.000000
0.000000
0.000000
0.000000
0.000000
0.000000
0.000000
0.000000
0.000000
0.000000
0.000000
0.000000
0.000000
0.000000
0.000000
0.000000
0.000000
0.000000
0.000000
0.000000
0.000000
0.000000
0.000000
0.000000
0.000000
0.000000
0.000000
0.000000
0.000000
0.000000
0.000000
0.000000
0.000000
0.000000
0.000000
0.000000
0.000000
0.000000
0.000000
0.000000
0.000000
0.000000
0.000000
0.000000
0.000000
0.000000
0.000000
0.000000
0.000000
0.000000
0.000000
0.000000
0.000000
0.000000
0.000000
0.000000
0.000000
0.000000
0.000000
0.000000
0.000000
0.000000
0.000000
0.000000
0.000000
0.000000
0.000000
0.000000
0.000000
0.000000
0.000000
0.000000
0.000000
0.000000
0.000000
0.000000
0.000000
0.000000
0.000000
0.000000
0.000000
0.000000
0.000000
0.000000
0.000000
0.000000
0.000000
0.000000
0.000000
0.000000
0.000000
0.000000
0.000000
0.000000
0.000000
0.000000
0.000000
0.000000
0.000000
0.000000
0.000000
0.000000
0.000000
0.000000
0.000000
0.000000
0.000000
0.000000
0.000000
0.000000
0.000000
0.000000
0.000000
0.000000
0.000000
0.000000
0.000000
0.000000
0.000000
0.000000
0.000000
0.000000
0.000000
0.000000
0.000000
0.000000
0.000000
0.000000
0.000000
0.000000
0.000000
0.000000
0.000000
0.000000
0.000000
0.000000
0.000000
0.000000
0.000000
0.000000
0.000000
0.000000
0.000000
0.000000
0.000000
0.000000
0.000000
0.000000
0.000000
0.000000
0.000000
0.000000
0.000000
0.000000
0.000000
0.000000
0.000000
0.000000
0.000000
0.000000
0.000000
0.000000
0.000000
0.000000
0.000000
0.000000
0.000000
0.000000
0.000000
0.000000
0.000000
0.000000
0.000000
0.000000
0.000000
0.000000
0.000000
0.000000
0.000000
0.000000
0.000000
0.000000
0.000000
0.000000
0.000000
0.000000
0.000000
0.000000
0.000000
0.000000
0.000000
0.000000
0.000000
0.000000
0.000000
0.000000
0.000000
0.000000
0.000000
0.000000
0.000000
0.000000
0.000000
0.000000
0.000000
0.000000
0.000000
0.000000
0.000000
0.000000
0.000000
0.000000
0.000000
0.000000
0.000000
0.000000
0.000000
0.000000
0.000000
0.000000
0.000000
0.000000
0.000000
0.000000
0.000000
0.000000
0.000000
0.000000
0.000000
0.000000
0.000000
0.000000
0.000000
0.000000
0.000000
0.000000
0.000000
0.000000
0.000000
0.000000
0.000000
0.000000
0.000000
0.000000
0.000000
0.000000
0.000000
0.000000
0.000000
0.000000
0.000000
0.000000
0.000000
0.000000
0.000000
0.000000
0.000000
0.000000
0.000000
0.000000
0.000000
0.000000
0.000000
0.000000
0.000000
0.000000
0.000000
0.000000
0.000000
0.000000
0.000000
0.000000
0.000000
0.000000
0.000000
0.000000
0.000000
0.000000
0.000000
0.000000
0.000000
0.000000
0.000000
0.000000
0.000000
0.000000
0.000000
0.000000
0.000000
0.000000
0.000000
0.000000
0.000000
0.000000
0.000000
0.000000
0.000000
0.000000
0.000000
0.000000
0.000000
0.000000
0.000000
0.000000
0.000000
0.000000
0.000000
0.000000
0.000000
0.000000
0.000000
0.000000
0.000000
0.000000
0.000000
0.000000
0.000000
0.000000
0.000000
0.000000
0.000000
0.000000
0.000000
0.000000
0.000000
0.000000
0.000000
0.000000
0.000000
0.000000
0.000000
0.000000
0.000000
0.000000
0.000000
0.000000
0.000000
0.000000
0.000000
0.000000
0.000000
0.000000
0.000000
0.000000
0.000000
0.000000
0.000000
0.000000
0.000000
0.000000
0.000000
0.000000
0.000000
0.000000
0.000000
0.000000
0.000000
0.000000
0.000000
0.000000
0.000000
0.000000
0.000000
0.000000
0.000000
0.000000
0.000000
0.000000
0.000000
0.000000
0.000000
0.000000
0.000000
0.000000
0.000000
0.000000
0.000000
0.000000
0.000000
0.000000
0.000000
0.000000
0.000000
0.000000
0.000000
0.000000
0.000000
0.000000
0.000000
0.000000
0.000000
0.000000
0.000000
0.000000
0.000000
0.000000
0.000000
0.000000
0.000000
0.000000
0.000000
0.000000
0.000000
0.000000
0.000000
0.000000
0.000000
0.000000
0.000000
0.000000
0.000000
0.000000
0.000000
0.000000
0.000000
0.000000
0.000000
0.000000
0.000000
0.000000
0.000000
0.000000
0.000000
0.000000
0.000000
0.000000
0.000000
0.000000
0.000000
0.000000
0.000000
0.000000
0.000000
0.000000
0.000000
0.000000
0.000000
0.000000
0.000000
0.000000
0.000000
0.000000
0.000000
0.000000
0.000000
0.000000
0.000000
0.000000
0.000000
0.000000
0.000000
0.000000
0.000000
0.000000
0.000000
0.000000
0.000000
0.000000
0.000000
0.000000
0.000000
0.000000
0.000000
0.000000
0.000000
0.000000
0.000000
0.000000
0.000000
0.000000
0.000000
0.000000
0.000000
0.000000
0.000000
0.000000
0.000000
0.000000
0.000000
0.000000
0.000000
0.000000
0.000000
0.000000
0.000000
0.000000
0.000000
0.000000
0.000000
0.000000
0.000000
0.000000
0.000000
0.000000
0.000000
0.000000
0.000000
0.000000
0.000000
0.000000
0.000000
0.000000
0.000000
0.000000
0.000000
0.000000
0.000000
0.000000
0.000000
0.000000
0.000000
0.000000
0.000000
0.000000
0.000000
0.000000
0.000000
0.000000
0.000000
0.000000
0.000000
0.000000
0.000000
0.000000
0.000000
0.000000
0.000000
0.000000
0.000000
0.000000
0.000000
0.000000
0.000000
0.000000
0.000000
0.000000
0.000000
0.000000
0.000000
0.000000
0.000000
0.000000
0.000000
0.000000
0.000000
0.000000
0.000000
0.000000
0.000000
0.000000
0.000000
0.000000
0.000000
0.000000
0.000000
0.000000
0.000000
0.000000
0.000000
0.000000
0.000000
0.000000
0.000000
0.000000
0.000000
0.000000
0.000000
0.000000
0.000000
0.000000
0.000000
0.000000
0.000000
0.000000
0.000000
0.000000
0.000000
0.000000
0.000000
0.000000
0.000000
0.000000
0.000000
0.000000
0.000000
0.000000
0.000000
0.000000
0.000000
0.000000
0.000000
0.000000
0.000000
0.000000
0.000000
0.000000
0.000000
0.000000
0.000000
0.000000
0.000000
0.000000
0.000000
0.000000
0.000000
0.000000
0.000000
0.000000
0.000000
0.000000
0.000000
0.000000
0.000000
0.000000
0.000000
0.000000
0.000000
0.000000
0.000000
0.000000
0.000000
0.000000
0.000000
0.000000
0.000000
0.000000
0.000000
0.000000
0.000000
0.000000
0.000000
0.000000
0.000000
0.000000
0.000000
0.000000
0.000000
0.000000
0.000000
0.000000
0.000000
0.000000
0.000000
0.000000
0.000000
0.000000
0.000000
0.000000
0.000000
0.000000
0.000000
0.000000
0.000000
0.000000
0.000000
0.000000
0.000000
0.000000
0.000000
0.000000
0.000000
0.000000
0.000000
0.000000
0.000000
0.000000
0.000000
0.000000
0.000000
0.000000
0.000000
0.000000
0.000000
0.000000
0.000000
0.000000
0.000000
0.000000
0.000000
0.000000
0.000000
0.000000
0.000000
0.000000
0.000000
0.000000
0.000000
0.000000
0.000000
0.000000
0.000000
0.000000
0.000000
0.000000
0.000000
0.000000
0.000000
0.000000
0.000000
0.000000
0.000000
0.000000
0.000000
0.000000
0.000000
0.000000
0.000000
0.000000
0.000000
0.000000
0.000000
0.000000
0.000000
0.000000
0.000000
0.000000
0.000000
0.000000
0.000000
0.000000
0.000000
0.000000
0.000000
0.000000
0.000000
0.000000
0.000000
0.000000
0.000000
0.000000
0.000000
0.000000
0.000000
0.000000
0.000000
0.000000
0.000000
0.000000
0.000000
0.000000
0.000000
0.000000
0.000000
0.000000
0.000000
0.000000
0.000000
0.000000
0.000000
0.000000
0.000000
0.000000
0.000000
0.000000
0.000000
0.000000
0.000000
0.000000
0.000000
0.000000
0.000000
0.000000
0.000000
0.000000
0.000000
0.000000
0.000000
0.000000
0.000000
0.000000
0.000000
0.000000
0.000000
0.000000
0.000000
0.000000
0.000000
0.000000
0.000000
0.000000
0.000000
0.000000
0.000000
0.000000
0.000000
0.000000
0.000000
0.000000
0.000000
0.000000
0.000000
0.000000
0.000000
0.000000
0.000000
0.000000
0.000000
0.000000
0.000000
0.000000
0.000000
0.000000
0.000000
0.000000
0.000000
0.000000
0.000000
0.000000
0.000000
0.000000
0.000000
0.000000
0.000000
0.000000
0.000000
0.000000
0.000000
0.000000
0.000000
0.000000
0.000000
0.000000
0.000000
0.000000
0.000000
0.000000
0.000000
0.000000
0.000000
0.000000
0.000000
0.000000
0.000000
0.000000
0.000000
0.000000
0.000000
0.000000
0.000000
0.000000
0.000000
0.000000
0.000000
0.000000
0.000000
0.000000
0.000000
0.000000
0.000000
0.000000
0.000000
0.000000
0.000000
0.000000
0.000000
0.000000
0.000000
0.000000
0.000000
0.000000
0.000000
0.000000
0.000000
0.000000
0.000000
0.000000
0.000000
0.000000
0.000000
0.000000
0.000000
0.000000
0.000000
0.000000
0.000000
0.000000
0.000000
0.000000
0.000000
0.000000
0.000000
0.000000
0.000000
0.000000
0.000000
0.000000
0.000000
0.000000
0.000000
0.000000
0.000000
0.000000
0.000000
0.000000
0.000000
0.000000
0.000000
0.000000
0.000000
0.000000
0.000000
0.000000
0.000000
0.000000
0.000000
0.000000
0.000000
0.000000
0.000000
0.000000
0.000000
0.000000
0.000000
0.000000
0.000000
0.000000
0.000000
0.000000
0.000000
0.000000
0.000000
0.000000
0.000000
0.000000
0.000000
0.000000
0.000000
0.000000
0.000000
0.000000
0.000000
0.000000
0.000000
0.000000
0.000000
0.000000
0.000000
0.000000
0.000000
0.000000
0.000000
0.000000
0.000000
0.000000
0.000000
0.000000
0.000000
0.000000
0.000000
0.000000
0.000000
0.000000
0.000000
0.000000
0.000000
0.000000
0.000000
0.000000
0.000000
0.000000
0.000000
0.000000
0.000000
0.000000
0.000000
0.000000
0.000000
0.000000
0.000000
0.000000
0.000000
0.000000
0.000000
0.000000
0.000000
0.000000
0.000000
0.000000
0.000000
0.000000
0.000000
0.000000
0.000000
0.000000
0.000000
0.000000
0.000000
0.000000
0.000000
0.000000
0.000000
0.000000
0.000000
0.000000
0.000000
0.000000
0.000000
0.000000
0.000000
0.000000
0.000000
0.000000
0.000000
0.000000
0.000000
0.000000
0.000000
0.000000
0.000000
0.000000
0.000000
0.000000
0.000000
0.000000
0.000000
0.000000
0.000000
0.000000
0.000000
0.000000
0.000000
0.000000
0.000000
0.000000
0.000000
0.000000
0.000000
0.000000
0.000000
0.000000
0.000000
0.000000
0.000000
0.000000
0.000000
0.000000
0.000000
0.000000
0.000000
0.000000
0.000000
0.000000
0.000000
0.000000
0.000000
0.000000
0.000000
0.000000
0.000000
0.000000
0.000000
0.000000
0.000000
0.000000
0.000000
0.000000
0.000000
0.000000
0.000000
0.000000
0.000000
0.000000
0.000000
0.000000
0.000000
0.000000
0.000000
0.000000
0.000000
0.000000
0.000000
0.000000
0.000000
0.000000
0.000000
0.000000
0.000000
0.000000
0.000000
0.000000
0.000000
0.000000
0.000000
0.000000
0.000000
0.000000
0.000000
0.000000
0.000000
0.000000
0.000000
0.000000
0.000000
0.000000
0.000000
0.000000
0.000000
0.000000
0.000000
0.000000
0.000000
0.000000
0.000000
0.000000
0.000000
0.000000
0.000000
0.000000
0.000000
0.000000
0.000000
0.000000
0.000000
0.000000
0.000000
0.000000
0.000000
0.000000
0.000000
0.000000
0.000000
0.000000
0.000000
0.000000
0.000000
0.000000
0.000000
0.000000
0.000000
0.000000
0.000000
0.000000
0.000000
0.000000
0.000000
0.000000
0.000000
0.000000
0.000000
0.000000
0.000000
0.000000
0.000000
0.000000
0.000000
0.000000
0.000000
0.000000
0.000000
0.000000
0.000000
0.000000
0.000000
0.000000
0.000000
0.000000
0.000000
0.000000
0.000000
0.000000
0.000000
0.000000
0.000000
0.000000
0.000000
0.000000
0.000000
0.000000
0.000000
0.000000
0.000000
0.000000
0.000000
0.000000
0.000000
0.000000
0.000000
0.000000
0.000000
0.000000
0.000000
0.000000
0.000000
0.000000
0.000000
0.000000
0.000000
0.000000
0.000000
0.000000
0.000000
0.000000
0.000000
0.000000
0.000000
0.000000
0.000000
0.000000
0.000000
0.000000
0.000000
0.000000
0.000000
0.000000
0.000000
0.000000
0.000000
0.000000
0.000000
0.000000
0.000000
0.000000
0.000000
0.000000
0.000000
0.000000
0.000000
0.000000
0.000000
0.000000
0.000000
0.000000
0.000000
0.000000
0.000000
0.000000
0.000000
0.000000
0.000000
0.000000
0.000000
0.000000
0.000000
0.000000
0.000000
0.000000
0.000000
0.000000
0.000000
0.000000
0.000000
0.000000
0.000000
0.000000
0.000000
0.000000
0.000000
0.000000
0.000000
0.000000
0.000000
0.000000
0.000000
0.000000
0.000000
0.000000
0.000000
0.000000
0.000000
0.000000
0.000000
0.000000
0.000000
0.000000
0.000000
0.000000
0.000000
0.000000
0.000000
0.000000
0.000000
0.000000
0.000000
0.000000
0.000000
0.000000
0.000000
0.000000
0.000000
0.000000
0.000000
0.000000
0.000000
0.000000
0.000000
0.000000
0.000000
0.000000
0.000000
0.000000
0.000000
0.000000
0.000000
0.000000
0.000000
0.000000
0.000000
0.000000
0.000000
0.000000
0.000000
0.000000
0.000000
0.000000
0.000000
0.000000
0.000000
0.000000
0.000000
0.000000
0.000000
0.000000
0.000000
0.000000
0.000000
0.000000
0.000000
0.000000
0.000000
0.000000
0.000000
0.000000
0.000000
0.000000
0.000000
0.000000
0.000000
0.000000
0.000000
0.000000
0.000000
0.000000
0.000000
0.000000
0.000000
0.000000
0.000000
0.000000
0.000000
0.000000
0.000000
0.000000
0.000000
0.000000
0.000000
0.000000
0.000000
0.000000
0.000000
0.000000
0.000000
0.000000
0.000000
0.000000
0.000000
0.000000
0.000000
0.000000
0.000000
0.000000
0.000000
0.000000
0.000000
0.000000
0.000000
0.000000
0.000000
0.000000
0.000000
0.000000
0.000000
0.000000
0.000000
0.000000
0.000000
0.000000
0.000000
0.000000
0.000000
0.000000
0.000000
0.000000
0.000000
0.000000
0.000000
0.000000
0.000000
0.000000
0.000000
0.000000
0.000000
0.000000
0.000000
0.000000
0.000000
0.000000
0.000000
0.000000
0.000000
0.000000
0.000000
0.000000
0.000000
0.000000
0.000000
0.000000
0.000000
0.000000
0.000000
0.000000
0.000000
0.000000
0.000000
0.000000
0.000000
0.000000
0.000000
0.000000
0.000000
0.000000
0.000000
0.000000
0.000000
0.000000
0.000000
0.000000
0.000000
0.000000
0.000000
0.000000
0.000000
0.000000
0.000000
0.000000
0.000000
0.000000
0.000000
0.000000
0.000000
0.000000
0.000000
0.000000
0.000000
0.000000
0.000000
0.000000
0.000000
0.000000
0.000000
0.000000
0.000000
0.000000
0.000000
0.000000
0.000000
0.000000
0.000000
0.000000
0.000000
0.000000
0.000000
0.000000
0.000000
0.000000
0.000000
0.000000
0.000000
0.000000
0.000000
0.000000
0.000000
0.000000
0.000000
0.000000
0.000000
0.000000
0.000000
0.000000
0.000000
0.000000
0.000000
0.000000
0.000000
0.000000
0.000000
0.000000
0.000000
0.000000
0.000000
0.000000
0.000000
0.000000
0.000000
0.000000
0.000000
0.000000
0.000000
0.000000
0.000000
0.000000
0.000000
0.000000
0.000000
0.000000
0.000000
0.000000
0.000000
0.000000
0.000000
0.000000
0.000000
0.000000
0.000000
0.000000
0.000000
0.000000
0.000000
0.000000
0.000000
0.000000
0.000000
0.000000
0.000000
0.000000
0.000000
0.000000
0.000000
0.000000
0.000000
0.000000
0.000000
0.000000
0.000000
0.000000
0.000000
0.000000
0.000000
0.000000
0.000000
0.000000
0.000000
0.000000
0.000000
0.000000
0.000000
0.000000
0.000000
0.000000
0.000000
0.000000
0.000000
0.000000
0.000000
0.000000
0.000000
0.000000
0.000000
0.000000
0.000000
0.000000
0.000000
0.000000
0.000000
0.000000
0.000000
0.000000
0.000000
0.000000
0.000000
0.000000
0.000000
0.000000
0.000000
0.000000
0.000000
0.000000
0.000000
0.000000
0.000000
0.000000
0.000000
0.000000
0.000000
0.000000
0.000000
0.000000
0.000000
0.000000
0.000000
0.000000
0.000000
0.000000
0.000000
0.000000
0.000000
0.000000
0.000000
0.000000
0.000000
0.000000
0.000000
0.000000
0.000000
0.000000
0.000000
0.000000
0.000000
0.000000
0.000000
0.000000
0.000000
0.000000
0.000000
0.000000
0.000000
0.000000
0.000000
0.000000
0.000000
0.000000
0.000000
0.000000
0.000000
0.000000
0.000000
0.000000
0.000000
0.000000
0.000000
0.000000
0.000000
0.000000
0.000000
0.000000
0.000000
0.000000
0.000000
0.000000
0.000000
0.000000
0.000000
0.000000
0.000000
0.000000
0.000000
0.000000
0.000000
0.000000
0.000000
0.000000
0.000000
0.000000
0.000000
0.000000
0.000000
0.000000
0.000000
0.000000
0.000000
0.000000
0.000000
0.000000
0.000000
0.000000
0.000000
0.000000
0.000000
0.000000
0.000000
0.000000
0.000000
0.000000
0.000000
0.000000
0.000000
0.000000
0.000000
0.000000
0.000000
0.000000
0.000000
0.000000
0.000000
0.000000
0.000000
0.000000
0.000000
0.000000
0.000000
0.000000
0.000000
0.000000
0.000000
0.000000
0.000000
0.000000
0.000000
0.000000
0.000000
0.000000
0.000000
0.000000
0.000000
0.000000
0.000000
0.000000
0.000000
0.000000
0.000000
0.000000
0.000000
0.000000
0.000000
0.000000
0.000000
0.000000
0.000000
0.000000
0.000000
0.000000
0.000000
0.000000
0.000000
0.000000
0.000000
0.000000
0.000000
0.000000
0.000000
0.000000
0.000000
0.000000
0.000000
0.000000
0.000000
0.000000
0.000000
0.000000
0.000000
0.000000
0.000000
0.000000
0.000000
0.000000
0.000000
0.000000
0.000000
0.000000
0.000000
0.000000
0.000000
0.000000
0.000000
0.000000
0.000000
0.000000
0.000000
0.000000
0.000000
0.000000
0.000000
0.000000
0.000000
0.000000
0.000000
0.000000
0.000000
0.000000
0.000000
0.000000
0.000000
0.000000
0.000000
0.000000
0.000000
0.000000
0.000000
0.000000
0.000000
0.000000
0.000000
0.000000
0.000000
0.000000
0.000000
0.000000
0.000000
0.000000
0.000000
0.000000
0.000000
0.000000
0.000000
0.000000
0.000000
0.000000
0.000000
0.000000
0.000000
0.000000
0.000000
0.000000
0.000000
0.000000
0.000000
0.000000
0.000000
0.000000
0.000000
0.000000
0.000000
0.000000
0.000000
0.000000
0.000000
0.000000
0.000000
0.000000
0.000000
0.000000
0.000000
0.000000
0.000000
0.000000
0.000000
0.000000
0.000000
0.000000
0.000000
0.000000
0.000000
0.000000
0.000000
0.000000
0.000000
0.000000
0.000000
0.000000
0.000000
0.000000
0.000000
0.000000
0.000000
0.000000
0.000000
0.000000
0.000000
0.000000
0.000000
0.000000
0.000000
0.000000
0.000000
0.000000
0.000000
0.000000
0.000000
0.000000
0.000000
0.000000
0.000000
0.000000
0.000000
0.000000
0.000000
0.000000
0.000000
0.000000
0.000000
0.000000
0.000000
0.000000
0.000000
0.000000
0.000000
0.000000
0.000000
0.000000
0.000000
0.000000
0.000000
0.000000
0.000000
0.000000
0.000000
0.000000
0.000000
0.000000
0.000000
0.000000
0.000000
0.000000
0.000000
0.000000
0.000000
0.000000
0.000000
0.000000
0.000000
0.000000
0.000000
0.000000
0.000000
0.000000
0.000000
0.000000
0.000000
0.000000
0.000000
0.000000
0.000000
0.000000
0.000000
0.000000
0.000000
0.000000
0.000000
0.000000
0.000000
0.000000
0.000000
0.000000
0.000000
0.000000
0.000000
0.000000
0.000000
0.000000
0.000000
0.000000
0.000000
0.000000
0.000000
0.000000
0.000000
0.000000
0.000000
0.000000
0.000000
0.000000
0.000000
0.000000
0.000000
0.000000
0.000000
0.000000
0.000000
0.000000
0.000000
0.000000
0.000000
0.000000
0.000000
0.000000
0.000000
0.000000
0.000000
0.000000
0.000000
0.000000
0.000000
0.000000
0.000000
0.000000
0.000000
0.000000
0.000000
0.000000
0.000000
0.000000
0.000000
0.000000
0.000000
0.000000
0.000000
0.000000
0.000000
0.000000
0.000000
0.000000
0.000000
0.000000
0.000000
0.000000
0.000000
0.000000
0.000000
0.000000
0.000000
0.000000
0.000000
0.000000
0.000000
0.000000
0.000000
0.000000
0.000000
0.000000
0.000000
0.000000
0.000000
0.000000
0.000000
0.000000
0.000000
0.000000
0.000000
0.000000
0.000000
0.000000
0.000000
0.000000
0.000000
0.000000
0.000000
0.000000
0.000000
0.000000
0.000000
0.000000
0.000000
0.000000
0.000000
0.000000
0.000000
0.000000
0.000000
0.000000
0.000000
0.000000
0.000000
0.000000
0.000000
0.000000
0.000000
0.000000
0.000000
0.000000
0.000000
0.000000
0.000000
0.000000
0.000000
0.000000
0.000000
0.000000
0.000000
0.000000
0.000000
0.000000
0.000000
0.000000
0.000000
0.000000
0.000000
0.000000
0.000000
0.000000
0.000000
0.000000
0.000000
0.000000
0.000000
0.000000
0.000000
0.000000
0.000000
0.000000
0.000000
0.000000
0.000000
0.000000
0.000000
0.000000
0.000000
0.000000
0.000000
0.000000
0.000000
0.000000
0.000000
0.000000
0.000000
0.000000
0.000000
0.000000
0.000000
0.000000
0.000000
0.000000
0.000000
0.000000
0.000000
0.000000
0.000000
0.000000
0.000000
0.000000
0.000000
0.000000
0.000000
0.000000
0.000000
0.000000
0.000000
0.000000
0.000000
0.000000
0.000000
0.000000
0.000000
0.000000
0.000000
0.000000
0.000000
0.000000
0.000000
0.000000
0.000000
0.000000
0.000000
0.000000
0.000000
0.000000
0.000000
0.000000
0.000000
0.000000
0.000000
0.000000
0.000000
0.000000
0.000000
0.000000
0.000000
0.000000
0.000000
0.000000
0.000000
0.000000
0.000000
0.000000
0.000000
0.000000
0.000000
0.000000
0.000000
0.000000
0.000000
0.000000
0.000000
0.000000
0.000000
0.000000
0.000000
0.000000
0.000000
0.000000
0.000000
0.000000
0.000000
0.000000
0.000000
0.000000
0.000000
0.000000
0.000000
0.000000
0.000000
0.000000
0.000000
0.000000
0.000000
0.000000
0.000000
0.000000
0.000000
0.000000
0.000000
0.000000
0.000000
0.000000
0.000000
0.000000
0.000000
0.000000
0.000000
0.000000
0.000000
0.000000
0.000000
0.000000
0.000000
0.000000
0.000000
0.000000
0.000000
0.000000
0.000000
0.000000
0.000000
0.000000
0.000000
0.000000
0.000000
0.000000
0.000000
0.000000
0.000000
0.000000
0.000000
0.000000
0.000000
0.000000
0.000000
0.000000
0.000000
0.000000
0.000000
0.000000
0.000000
0.000000
0.000000
0.000000
0.000000
0.000000
0.000000
0.000000
0.000000
0.000000
0.000000
0.000000
0.000000
0.000000
0.000000
0.000000
0.000000
0.000000
0.000000
0.000000
0.000000
0.000000
0.000000
0.000000
0.000000
0.000000
0.000000
0.000000
0.000000
0.000000
0.000000
0.000000
0.000000
0.000000
0.000000
0.000000
0.000000
0.000000
0.000000
0.000000
0.000000
0.000000
0.000000
0.000000
0.000000
0.000000
0.000000
0.000000
0.000000
0.000000
0.000000
0.000000
0.000000
0.000000
0.000000
0.000000
0.000000
0.000000
0.000000
0.000000
0.000000
0.000000
0.000000
0.000000
0.000000
0.000000
0.000000
0.000000
0.000000
0.000000
0.000000
0.000000
0.000000
0.000000
0.000000
0.000000
0.000000
0.000000
0.000000
0.000000
0.000000
0.000000
0.000000
0.000000
0.000000
0.000000
0.000000
0.000000
0.000000
0.000000
0.000000
0.000000
0.000000
0.000000
0.000000
0.000000
0.000000
0.000000
0.000000
0.000000
0.000000
0.000000
0.000000
0.000000
0.000000
0.000000
0.000000
0.000000
0.000000
0.000000
0.000000
0.000000
0.000000
0.000000
0.000000
0.000000
0.000000
0.000000
0.000000
0.000000
0.000000
0.000000
0.000000
0.000000
0.000000
0.000000
0.000000
0.000000
0.000000
0.000000
0.000000
0.000000
0.000000
0.000000
0.000000
0.000000
0.000000
0.000000
0.000000
0.000000
0.000000
0.000000
0.000000
0.000000
0.000000
0.000000
0.000000
0.000000
0.000000
0.000000
0.000000
0.000000
0.000000
0.000000
0.000000
0.000000
0.000000
0.000000
0.000000
0.000000
0.000000
0.000000
0.000000
0.000000
0.000000
0.000000
0.000000
0.000000
0.000000
0.000000
0.000000
0.000000
0.000000
0.000000
0.000000
0.000000
0.000000
0.000000
0.000000
0.000000
0.000000
0.000000
0.000000
0.000000
0.000000
0.000000
0.000000
0.000000
0.000000
0.000000
0.000000
0.000000
0.000000
0.000000
0.000000
0.000000
0.000000
0.000000
0.000000
0.000000
0.000000
0.000000
0.000000
0.000000
0.000000
0.000000
0.000000
0.000000
0.000000
0.000000
0.000000
0.000000
0.000000
0.000000
0.000000
0.000000
0.000000
0.000000
0.000000
0.000000
0.000000
0.000000
0.000000
0.000000
0.000000
0.000000
0.000000
0.000000
0.000000
0.000000
0.000000
0.000000
0.000000
0.000000
0.000000
0.000000
0.000000
0.000000
0.000000
0.000000
0.000000
0.000000
0.000000
0.000000
0.000000
0.000000
0.000000
0.000000
0.000000
0.000000
0.000000
0.000000
0.000000
0.000000
0.000000
0.000000
0.000000
0.000000
0.000000
0.000000
0.000000
0.000000
0.000000
0.000000
0.000000
0.000000
0.000000
0.000000
0.000000
0.000000
0.000000
0.000000
0.000000
0.000000
0.000000
0.000000
0.000000
0.000000
0.000000
0.000000
0.000000
0.000000
0.000000
0.000000
0.000000
0.000000
0.000000
0.000000
0.000000
0.000000
0.000000
0.000000
0.000000
0.000000
0.000000
0.000000
0.000000
0.000000
0.000000
0.000000
0.000000
0.000000
0.000000
0.000000
0.000000
0.000000
0.000000
0.000000
0.000000
0.000000
0.000000
0.000000
0.000000
0.000000
0.000000
0.000000
0.000000
0.000000
0.000000
0.000000
0.000000
0.000000
0.000000
0.000000
0.000000
0.000000
0.000000
0.000000
0.000000
0.000000
0.000000
0.000000
0.000000
0.000000
0.000000
0.000000
0.000000
0.000000
0.000000
0.000000
0.000000
0.000000
0.000000
0.000000
0.000000
0.000000
0.000000
0.000000
0.000000
0.000000
0.000000
0.000000
0.000000
0.000000
0.000000
0.000000
0.000000
0.000000
0.000000
0.000000
0.000000
0.000000
0.000000
0.000000
0.000000
0.000000
0.000000
0.000000
0.000000
0.000000
0.000000
0.000000
0.000000
0.000000
0.000000
0.000000
0.000000
0.000000
0.000000
0.000000
0.000000
0.000000
0.000000
0.000000
0.000000
0.000000
0.000000
0.000000
0.000000
0.000000
0.000000
0.000000
0.000000
0.000000
0.000000
0.000000
0.000000
0.000000
0.000000
0.000000
0.000000
0.000000
0.000000
0.000000
0.000000
0.000000
0.000000
0.000000
0.000000
0.000000
0.000000
0.000000
0.000000
0.000000
0.000000
0.000000
0.000000
0.000000
0.000000
0.000000
0.000000
0.000000
0.000000
0.000000
0.000000
0.000000
0.000000
0.000000
0.000000
0.000000
0.000000
0.000000
0.000000
0.000000
0.000000
0.000000
0.000000
0.000000
0.000000
0.000000
0.000000
0.000000
0.000000
0.000000
0.000000
0.000000
0.000000
0.000000
0.000000
0.000000
0.000000
0.000000
0.000000
0.000000
0.000000
0.000000
0.000000
0.000000
0.000000
0.000000
0.000000
0.000000
0.000000
0.000000
0.000000
0.000000
0.000000
0.000000
0.000000
0.000000
0.000000
0.000000
0.000000
0.000000
0.000000
0.000000
0.000000
0.000000
0.000000
0.000000
0.000000
0.000000
0.000000
0.000000
0.000000
0.000000
0.000000
0.000000
0.000000
0.000000
0.000000
0.000000
0.000000
0.000000
0.000000
0.000000
0.000000
0.000000
0.000000
0.000000
0.000000
0.000000
0.000000
0.000000
0.000000
0.000000
0.000000
0.000000
0.000000
0.000000
0.000000
0.000000
0.000000
0.000000
0.000000
0.000000
0.000000
0.000000
0.000000
0.000000
0.000000
0.000000
0.000000
0.000000
0.000000
0.000000
0.000000
0.000000
0.000000
0.000000
0.000000
0.000000
0.000000
0.000000
0.000000
0.000000
0.000000
0.000000
0.000000
0.000000
0.000000
0.000000
0.000000
0.000000
0.000000
0.000000
0.000000
0.000000
0.000000
0.000000
0.000000
0.000000
0.000000
0.000000
0.000000
0.000000
0.000000
0.000000
0.000000
0.000000
0.000000
0.000000
0.000000
0.000000
0.000000
0.000000
0.000000
0.000000
0.000000
0.000000
0.000000
0.000000
0.000000
0.000000
0.000000
0.000000
0.000000
0.000000
0.000000
0.000000
0.000000
0.000000
0.000000
0.000000
0.000000
0.000000
0.000000
0.000000
0.000000
0.000000
0.000000
0.000000
0.000000
0.000000
0.000000
0.000000
0.000000
0.000000
0.000000
0.000000
0.000000
0.000000
0.000000
0.000000
0.000000
0.000000
0.000000
0.000000
0.000000
0.000000
0.000000
0.000000
0.000000
0.000000
0.000000
0.000000
0.000000
0.000000
0.000000
0.000000
0.000000
0.000000
0.000000
0.000000
0.000000
0.000000
0.000000
0.000000
0.000000
0.000000
0.000000
0.000000
0.000000
0.000000
0.000000
0.000000
0.000000
0.000000
0.000000
0.000000
0.000000
0.000000
0.000000
0.000000
0.000000
0.000000
0.000000
0.000000
0.000000
0.000000
0.000000
0.000000
0.000000
0.000000
0.000000
0.000000
0.000000
0.000000
0.000000
0.000000
0.000000
0.000000
0.000000
0.000000
0.000000
0.000000
0.000000
0.000000
0.000000
0.000000
0.000000
0.000000
0.000000
0.000000
0.000000
0.000000
0.000000
0.000000
0.000000
0.000000
0.000000
0.000000
0.000000
0.000000
0.000000
0.000000
0.000000
0.000000
0.000000
0.000000
0.000000
0.000000
0.000000
0.000000
0.000000
0.000000
0.000000
0.000000
0.000000
0.000000
0.000000
0.000000
0.000000
0.000000
0.000000
0.000000
0.000000
0.000000
0.000000
0.000000
0.000000
0.000000
0.000000
0.000000
0.000000
0.000000
0.000000
0.000000
0.000000
0.000000
0.000000
0.000000
0.000000
0.000000
0.000000
0.000000
0.000000
0.000000
0.000000
0.000000
0.000000
0.000000
0.000000
0.000000
0.000000
0.000000
0.000000
0.000000
0.000000
0.000000
0.000000
0.000000
0.000000
0.000000
0.000000
0.000000
0.000000
0.000000
0.000000
0.000000
0.000000
0.000000
0.000000
0.000000
0.000000
0.000000
0.000000
0.000000
0.000000
0.000000
0.000000
0.000000
0.000000
0.000000
0.000000
0.000000
0.000000
0.000000
0.000000
0.000000
0.000000
0.000000
0.000000
0.000000
0.000000
0.000000
0.000000
0.000000
0.000000
0.000000
0.000000
0.000000
0.000000
0.000000
0.000000
0.000000
0.000000
0.000000
0.000000
0.000000
0.000000
0.000000
0.000000
0.000000
0.000000
0.000000
0.000000
0.000000
0.000000
0.000000
0.000000
0.000000
0.000000
0.000000
0.000000
0.000000
0.000000
0.000000
0.000000
0.000000
0.000000
0.000000
0.000000
0.000000
0.000000
0.000000
0.000000
0.000000
0.000000
0.000000
0.000000
0.000000
0.000000
0.000000
0.000000
0.000000
0.000000
0.000000
0.000000
0.000000
0.000000
0.000000
0.000000
0.000000
0.000000
0.000000
0.000000
0.000000
0.000000
0.000000
0.000000
0.000000
0.000000
0.000000
0.000000
0.000000
0.000000
0.000000
0.000000
0.000000
0.000000
0.000000
0.000000
0.000000
0.000000
0.000000
0.000000
0.000000
0.000000
0.000000
0.000000
0.000000
0.000000
0.000000
0.000000
0.000000
0.000000
0.000000
0.000000
0.000000
0.000000
0.000000
0.000000
0.000000
0.000000
0.000000
0.000000
0.000000
0.000000
0.000000
0.000000
0.000000
0.000000
0.000000
0.000000
0.000000
0.000000
0.000000
0.000000
0.000000
0.000000
0.000000
0.000000
0.000000
0.000000
0.000000
0.000000
0.000000
0.000000
0.000000
0.000000
0.000000
0.000000
0.000000
0.000000
0.000000
0.000000
0.000000
0.000000
0.000000
0.000000
0.000000
0.000000
0.000000
0.000000
0.000000
0.000000
0.000000
0.000000
0.000000
0.000000
0.000000
0.000000
0.000000
0.000000
0.000000
0.000000
0.000000
0.000000
0.000000
0.000000
0.000000
0.000000
0.000000
0.000000
0.000000
0.000000
0.000000
0.000000
0.000000
0.000000
0.000000
0.000000
0.000000
0.000000
0.000000
0.000000
0.000000
0.000000
0.000000
0.000000
0.000000
0.000000
0.000000
0.000000
0.000000
0.000000
0.000000
0.000000
0.000000
0.000000
0.000000
0.000000
0.000000
0.000000
0.000000
0.000000
0.000000
0.000000
0.000000
0.000000
0.000000
0.000000
0.000000
0.000000
0.000000
0.000000
0.000000
0.000000
0.000000
0.000000
0.000000
0.000000
0.000000
0.000000
0.000000
0.000000
0.000000
0.000000
0.000000
0.000000
0.000000
0.000000
0.000000
0.000000
0.000000
0.000000
0.000000
0.000000
0.000000
0.000000
0.000000
0.000000
0.000000
0.000000
0.000000
0.000000
0.000000
0.000000
0.000000
0.000000
0.000000
0.000000
0.000000
0.000000
0.000000
0.000000
0.000000
0.000000
0.000000
0.000000
0.000000
0.000000
0.000000
0.000000
0.000000
0.000000
0.000000
0.000000
0.000000
0.000000
0.000000
0.000000
0.000000
0.000000
0.000000
0.000000
0.000000
0.000000
0.000000
0.000000
0.000000
0.000000
0.000000
0.000000
0.000000
0.000000
0.000000
0.000000
0.000000
0.000000
0.000000
0.000000
0.000000
0.000000
0.000000
0.000000
0.000000
0.000000
0.000000
0.000000
0.000000
0.000000
0.000000
0.000000
0.000000
0.000000
0.000000
0.000000
0.000000
0.000000
0.000000
0.000000
0.000000
0.000000
0.000000
0.000000
0.000000
0.000000
0.000000
0.000000
0.000000
0.000000
0.000000
0.000000
0.000000
0.000000
0.000000
0.000000
0.000000
0.000000
0.000000
0.000000
0.000000
0.000000
0.000000
0.000000
0.000000
0.000000
0.000000
0.000000
0.000000
0.000000
0.000000
0.000000
0.000000
0.000000
0.000000
0.000000
0.000000
0.000000
0.000000
0.000000
0.000000
0.000000
0.000000
0.000000
0.000000
0.000000
0.000000
0.000000
0.000000
0.000000
0.000000
0.000000
0.000000
0.000000
0.000000
0.000000
0.000000
0.000000
0.000000
0.000000
0.000000
0.000000
0.000000
0.000000
0.000000
0.000000
0.000000
0.000000
0.000000
0.000000
0.000000
0.000000
0.000000
0.000000
0.000000
0.000000
0.000000
0.000000
0.000000
0.000000
0.000000
0.000000
0.000000
0.000000
0.000000
0.000000
0.000000
0.000000
0.000000
0.000000
0.000000
0.000000
0.000000
0.000000
0.000000
0.000000
0.000000
0.000000
0.000000
0.000000
0.000000
0.000000
0.000000
0.000000
0.000000
0.000000
0.000000
0.000000
0.000000
0.000000
0.000000
0.000000
0.000000
0.000000
0.000000
0.000000
0.000000
0.000000
0.000000
0.000000
0.000000
0.000000
0.000000
0.000000
0.000000
0.000000
0.000000
0.000000
0.000000
0.000000
0.000000
0.000000
0.000000
0.000000
0.000000
0.000000
0.000000
0.000000
0.000000
0.000000
0.000000
0.000000
0.000000
0.000000
0.000000
0.000000
0.000000
0.000000
0.000000
0.000000
0.000000
0.000000
0.000000
0.000000
0.000000
0.000000
0.000000
0.000000
0.000000
0.000000
0.000000
0.000000
0.000000
0.000000
0.000000
0.000000
0.000000
0.000000
0.000000
0.000000
0.000000
0.000000
0.000000
0.000000
0.000000
0.000000
0.000000
0.000000
0.000000
0.000000
0.000000
0.000000
0.000000
0.000000
0.000000
0.000000
0.000000
0.000000
0.000000
0.000000
0.000000
0.000000
0.000000
0.000000
0.000000
0.000000
0.000000
0.000000
0.000000
0.000000
0.000000
0.000000
0.000000
0.000000
0.000000
0.000000
0.000000
0.000000
0.000000
0.000000
0.000000
0.000000
0.000000
0.000000
0.000000
0.000000
0.000000
0.000000
0.000000
0.000000
0.000000
0.000000
0.000000
0.000000
0.000000
0.000000
0.000000
0.000000
0.000000
0.000000
0.000000
0.000000
0.000000
0.000000
0.000000
0.000000
0.000000
0.000000
0.000000
0.000000
0.000000
0.000000
0.000000
0.000000
0.000000
0.000000
0.000000
0.000000
0.000000
0.000000
0.000000
0.000000
0.000000
0.000000
0.000000
0.000000
0.000000
0.000000
0.000000
0.000000
0.000000
0.000000
0.000000
0.000000
0.000000
0.000000
0.000000
0.000000
0.000000
0.000000
0.000000
0.000000
0.000000
0.000000
0.000000
0.000000
0.000000
0.000000
0.000000
0.000000
0.000000
0.000000
0.000000
0.000000
0.000000
0.000000
0.000000
0.000000
0.000000
0.000000
0.000000
0.000000
0.000000
0.000000
0.000000
0.000000
0.000000
0.000000
0.000000
0.000000
0.000000
0.000000
0.000000
0.000000
0.000000
0.000000
0.000000
0.000000
0.000000
0.000000
0.000000
0.000000
0.000000
0.000000
0.000000
0.000000
0.000000
0.000000
0.000000
0.000000
0.000000
0.000000
0.000000
0.000000
0.000000
0.000000
0.000000
0.000000
0.000000
0.000000
0.000000
0.000000
0.000000
0.000000
0.000000
0.000000
0.000000
0.000000
0.000000
0.000000
0.000000
0.000000
0.000000
0.000000
0.000000
0.000000
0.000000
0.000000
0.000000
0.000000
0.000000
0.000000
0.000000
0.000000
0.000000
0.000000
0.000000
0.000000
0.000000
0.000000
0.000000
0.000000
0.000000
0.000000
0.000000
0.000000
0.000000
0.000000
0.000000
0.000000
0.000000
0.000000
0.000000
0.000000
0.000000
0.000000
0.000000
0.000000
0.000000
0.000000
0.000000
0.000000
0.000000
0.000000
0.000000
0.000000
